,id,calving.vonmises_calving.sigma_max,ocean.th.gamma_T,ocean_file,climate_file,frontal_melt.routing.parameter_a,frontal_melt.routing.parameter_b,frontal_melt.routing.power_alpha,frontal_melt.routing.power_beta,prescribed_retreat_file,stress_balance.sia.enhancement_factor,stress_balance.ssa.Glen_exponent,basal_resistance.pseudo_plastic.q,basal_yield_stress.mohr_coulomb.till_effective_fraction_overburden,basal_yield_stress.mohr_coulomb.topg_to_phi.phi_min,basal_yield_stress.mohr_coulomb.topg_to_phi.phi_max,basal_yield_stress.mohr_coulomb.topg_to_phi.topg_min,basal_yield_stress.mohr_coulomb.topg_to_phi.topg_max,calving.thickness_calving.threshold,climate,fractures,frontal_melt,hydrology,ocean.models,sliding_law
,MODE,750000,0.0001354809575015,MAR3.9_ACCESS1-3_rcp85_ocean_1960-2100_v4.nc,MARv3.14-monthly-ERA5_1940_2023.nc,0.000340785359703,1.4884430943988265,0.6321793430484832,1.6643602719530464,pism_g450m_frontretreat_calfin_1972_2019.nc,1.9018396,3.299505,0.73261654,0.012281087,5.4509544,43.309277,-590.17255,195.7463,50,given_smb,False,routing,routing,th,pseudo_plastic
,MODE-20C,750000,0.0001354809575015,MAR3.9_ACCESS1-3_rcp85_ocean_1960-2100_v4.nc,MARv3.5.2-20CRv2c_1900_2014.nc,0.000340785359703,1.4884430943988265,0.6321793430484832,1.6643602719530464,,1.9018396,3.299505,0.73261654,0.012281087,5.4509544,43.309277,-590.17255,195.7463,50,given_smb,False,routing,routing,th,pseudo_plastic
