id,calving.vonmises_calving.sigma_max,calving.rate_scaling.file,ocean.th.gamma_T,ocean_file,climate_file,frontal_melt.routing.parameter_a,frontal_melt.routing.parameter_b,frontal_melt.routing.power_alpha,frontal_melt.routing.power_beta,sia_e,ssa_n,pseudo_plastic_q,till_effective_fraction_overburden,phi_min,phi_max,z_min,z_max,Model,basal_resistance.pseudo_plastic.q,basal_yield_stress.mohr_coulomb.till_effective_fraction_overburden,basal_yield_stress.mohr_coulomb.topg_to_phi.phi_max,basal_yield_stress.mohr_coulomb.topg_to_phi.phi_min,basal_yield_stress.mohr_coulomb.topg_to_phi.topg_max,basal_yield_stress.mohr_coulomb.topg_to_phi.topg_min,calving.thickness_calving.threshold,climate,fractures,frontal_melt,hydrology,ocean.models,prescribed_retreat_file,sliding_law,stress_balance.sia.enhancement_factor,stress_balance.ssa.Glen_exponent
0,402948.3285021029,seasonal_calving_id_2_1975_2025.nc,0.00010847108220554788,MAR3.9_CNRM-CM6_ssp126_ocean_1960-2100_v4.nc,MARv3.14-monthly-ERA5-1975_2023.nc,0.00025173954820890694,1.2338928562057943,0.5107300977281276,2.205568319981251,3.0531943,3.2785158,0.8095597,0.023211498,6.7359066,43.95927,-342.08167,425.54465,17.0,0.7508221,0.01845403,42.79528,7.193718,243.8239,-369.6359,50,given_smb,false,routing,routing,th,pism_g450m_frontretreat_calfin_1972_2019.nc,pseudo_plastic,2.608046,3.309718
1,521960.24670207355,seasonal_calving_id_-1_1975_2025.nc,8.513550253677581e-05,MAR3.9_UKESM1-CM6_ssp585_ocean_1960-2100_v4.nc,MARv3.14-monthly-ERA5-1975_2023.nc,0.00031603750852595124,1.1338507983317048,0.5894249201728718,2.3841609268453796,2.5594025,3.2888606,0.7654235,0.014085366,8.076264,42.198257,-358.27585,109.98415,21.0,0.7508221,0.01845403,42.79528,7.193718,243.8239,-369.6359,50,given_smb,false,routing,routing,th,pism_g450m_frontretreat_calfin_1972_2019.nc,pseudo_plastic,2.608046,3.309718
2,590460.5498407952,seasonal_calving_id_6_1975_2025.nc,0.00014642233534196313,MAR3.9_MIROC-ESM-CHEM_rcp26_ocean_1960-2100_v4.nc,DMI-HIRHAM5_ERA_1975_2021_EPSG3413_4500M_MM.nc,0.0003514948085541434,1.3583232646541714,0.5173777180862514,1.821118248709433,2.9301453,3.359266,0.8130584,0.0144201005,7.7064023,43.83046,-364.6181,54.686604,23.0,0.7508221,0.01845403,42.79528,7.193718,243.8239,-369.6359,50,given_smb,false,routing,routing,th,pism_g450m_frontretreat_calfin_1972_2019.nc,pseudo_plastic,2.608046,3.309718
3,553638.3277232253,seasonal_calving_id_-1_1975_2025.nc,0.00012336125366103039,MAR3.9_CNRM-ESM2_ssp585_ocean_1960-2100_v4.nc,DMI-HIRHAM5_ERA_1975_2021_EPSG3413_4500M_MM.nc,0.00030178051979938786,1.0297672876342128,0.5741454618303174,2.448276286758904,2.5288918,3.2959242,0.7429214,0.01740923,8.888568,43.191593,-229.01718,192.12808,2.0,0.7508221,0.01845403,42.79528,7.193718,243.8239,-369.6359,50,given_smb,false,routing,routing,th,pism_g450m_frontretreat_calfin_1972_2019.nc,pseudo_plastic,2.608046,3.309718
4,394071.1239235769,seasonal_calving_id_-1_1975_2025.nc,0.00011602478371195343,MAR3.9_IPSL-CM5-MR_rcp85_ocean_1960-2100_v4.nc,DMI-HIRHAM5_ERA_1975_2021_EPSG3413_4500M_MM.nc,0.00028251744205105096,1.3449721321842794,0.34178412175624784,2.196019441710968,2.7056146,3.295959,0.7385016,0.014684145,10.895643,41.62684,-178.68765,38.88885,22.0,0.7508221,0.01845403,42.79528,7.193718,243.8239,-369.6359,50,given_smb,false,routing,routing,th,pism_g450m_frontretreat_calfin_1972_2019.nc,pseudo_plastic,2.608046,3.309718
5,570000.2673175477,seasonal_calving_id_3_1975_2025.nc,0.00014742508203334024,MAR3.9_MIROC-ESM-CHEM_rcp26_ocean_1960-2100_v4.nc,MARv3.14-monthly-ERA5-1975_2023.nc,0.0003371425696760109,1.5479875253493975,0.6102621343671926,2.585837636097984,3.2213082,3.3210242,0.61748,0.0214459,9.281372,43.943375,-374.8063,204.67737,25.0,0.7508221,0.01845403,42.79528,7.193718,243.8239,-369.6359,50,given_smb,false,routing,routing,th,pism_g450m_frontretreat_calfin_1972_2019.nc,pseudo_plastic,2.608046,3.309718
6,400805.81705898396,seasonal_calving_id_4_1975_2025.nc,0.00014458511812377609,MAR3.9_CNRM-CM6_ssp126_ocean_1960-2100_v4.nc,DMI-HIRHAM5_ERA_1975_2021_EPSG3413_4500M_MM.nc,0.00035422759927802324,1.279715867740038,0.3296417866107256,1.3523434260279452,2.7228086,3.2611685,0.71160537,0.017801192,6.6649833,44.14163,-318.1763,60.071728,17.0,0.7508221,0.01845403,42.79528,7.193718,243.8239,-369.6359,50,given_smb,false,routing,routing,th,pism_g450m_frontretreat_calfin_1972_2019.nc,pseudo_plastic,2.608046,3.309718
7,647284.6328914182,seasonal_calving_id_3_1975_2025.nc,0.0001331661446960429,MAR3.9_MIROC-ESM-CHEM_rcp85_ocean_1960-2100_v4.nc,DMI-HIRHAM5_ERA_1975_2021_EPSG3413_4500M_MM.nc,0.0003561253274739138,1.1291966772867748,0.39722719994392564,2.716937546476179,2.5989294,3.3295715,0.83875054,0.023815863,8.183552,42.236526,-187.63322,313.05875,40.0,0.7508221,0.01845403,42.79528,7.193718,243.8239,-369.6359,50,given_smb,false,routing,routing,th,pism_g450m_frontretreat_calfin_1972_2019.nc,pseudo_plastic,2.608046,3.309718
8,638097.7224352846,seasonal_calving_id_1_1975_2025.nc,0.00010023945684564016,MAR3.9_IPSL-CM5-MR_rcp85_ocean_1960-2100_v4.nc,DMI-HIRHAM5_ERA_1975_2021_EPSG3413_4500M_MM.nc,0.0003203475451939718,1.027463255346075,0.5415333609463446,1.498469209055121,2.9163575,3.3101516,0.7068642,0.018554684,10.169976,43.29016,-331.1658,293.97308,2.0,0.7508221,0.01845403,42.79528,7.193718,243.8239,-369.6359,50,given_smb,false,routing,routing,th,pism_g450m_frontretreat_calfin_1972_2019.nc,pseudo_plastic,2.608046,3.309718
9,643191.144027413,seasonal_calving_id_2_1975_2025.nc,7.994763332753476e-05,MAR3.9_CNRM-ESM2_ssp585_ocean_1960-2100_v4.nc,DMI-HIRHAM5_ERA_1975_2021_EPSG3413_4500M_MM.nc,0.0003312867710131555,1.089300514158557,0.5322969460325644,1.5571311548239435,2.5841825,3.3197818,0.5822166,0.017156709,11.321485,43.757366,-509.64978,394.10693,36.0,0.7508221,0.01845403,42.79528,7.193718,243.8239,-369.6359,50,given_smb,false,routing,routing,th,pism_g450m_frontretreat_calfin_1972_2019.nc,pseudo_plastic,2.608046,3.309718
10,567245.8900919539,seasonal_calving_id_3_1975_2025.nc,0.00013460737017848467,MAR3.9_CNRM-ESM2_ssp585_ocean_1960-2100_v4.nc,MARv3.14-monthly-ERA5-1975_2023.nc,0.00031384138980244676,1.4278406687549405,0.3092399231461785,2.4164942899292763,2.6153774,3.28521,0.6083828,0.019810403,7.2502394,41.72326,-449.07404,214.1656,37.0,0.7508221,0.01845403,42.79528,7.193718,243.8239,-369.6359,50,given_smb,false,routing,routing,th,pism_g450m_frontretreat_calfin_1972_2019.nc,pseudo_plastic,2.608046,3.309718
11,383657.84639418626,seasonal_calving_id_6_1975_2025.nc,0.00010489021196112951,MAR3.9_CNRM-ESM2_ssp585_ocean_1960-2100_v4.nc,MARv3.14-monthly-ERA5-1975_2023.nc,0.00030399638099920024,1.2481007260770522,0.4799432480875281,2.4352628269183185,2.0325396,3.356457,0.77692246,0.01590543,10.088269,44.51759,-630.34686,821.77484,15.0,0.7508221,0.01845403,42.79528,7.193718,243.8239,-369.6359,50,given_smb,false,routing,routing,th,pism_g450m_frontretreat_calfin_1972_2019.nc,pseudo_plastic,2.608046,3.309718
12,417134.2730710933,seasonal_calving_id_2_1975_2025.nc,9.138863947315115e-05,MAR3.9_NorESM1-M_rcp85_ocean_1960-2100_v4.nc,DMI-HIRHAM5_ERA_1975_2021_EPSG3413_4500M_MM.nc,0.00035992741391063955,1.2139790143336224,0.5537902356208408,2.0947536409504917,2.2950168,3.2866297,0.83289975,0.016384138,6.983303,43.763676,-385.62634,290.71664,20.0,0.7508221,0.01845403,42.79528,7.193718,243.8239,-369.6359,50,given_smb,false,routing,routing,th,pism_g450m_frontretreat_calfin_1972_2019.nc,pseudo_plastic,2.608046,3.309718
13,427369.85917383234,seasonal_calving_id_1_1975_2025.nc,0.00013267162668665418,MAR3.9_HadGEM2-ES_rcp85_ocean_1960-2100_v4.nc,MARv3.14-monthly-ERA5-1975_2023.nc,0.0003299074770516523,1.4508124892835972,0.5629647061086668,2.4771287674229816,2.4102397,3.3534913,0.81143254,0.016041968,8.214347,43.82307,-372.88654,375.02136,13.0,0.7508221,0.01845403,42.79528,7.193718,243.8239,-369.6359,50,given_smb,false,routing,routing,th,pism_g450m_frontretreat_calfin_1972_2019.nc,pseudo_plastic,2.608046,3.309718
14,533614.4618419276,seasonal_calving_id_5_1975_2025.nc,0.00012900238844164587,MAR3.9_ACCESS1-3_rcp85_ocean_1960-2100_v4.nc,DMI-HIRHAM5_ERA_1975_2021_EPSG3413_4500M_MM.nc,0.00031485578775875743,1.6665706661031994,0.31701175498763007,1.3279143535351798,2.4423244,3.3170586,0.7297531,0.024642508,5.685158,41.16887,-361.18152,371.58875,44.0,0.7508221,0.01845403,42.79528,7.193718,243.8239,-369.6359,50,given_smb,false,routing,routing,th,pism_g450m_frontretreat_calfin_1972_2019.nc,pseudo_plastic,2.608046,3.309718
15,367895.0353130274,seasonal_calving_id_0_1975_2025.nc,0.00014971908283694692,MAR3.9_UKESM1-CM6_ssp585_ocean_1960-2100_v4.nc,DMI-HIRHAM5_ERA_1975_2021_EPSG3413_4500M_MM.nc,0.00026012854549803806,1.333132681612628,0.6925146197971015,2.50987728093948,2.6011481,3.3213265,0.63372207,0.021244723,6.0772467,42.162014,-391.8216,84.67979,41.0,0.7508221,0.01845403,42.79528,7.193718,243.8239,-369.6359,50,given_smb,false,routing,routing,th,pism_g450m_frontretreat_calfin_1972_2019.nc,pseudo_plastic,2.608046,3.309718
16,469943.99320769776,seasonal_calving_id_6_1975_2025.nc,0.00011758411094962362,MAR3.9_MIROC-ESM-CHEM_rcp26_ocean_1960-2100_v4.nc,MARv3.14-monthly-ERA5-1975_2023.nc,0.00032678720629039366,1.0581400749936292,0.4649067795476639,2.641028629710192,2.6055517,3.1717925,0.6301113,0.026252324,8.040715,42.035797,-500.39532,693.29456,48.0,0.7508221,0.01845403,42.79528,7.193718,243.8239,-369.6359,50,given_smb,false,routing,routing,th,pism_g450m_frontretreat_calfin_1972_2019.nc,pseudo_plastic,2.608046,3.309718
17,455263.86792118114,seasonal_calving_id_0_1975_2025.nc,0.00011199978867091397,MAR3.9_NorESM1-M_rcp85_ocean_1960-2100_v4.nc,MARv3.14-monthly-ERA5-1975_2023.nc,0.00030664345730452004,1.479425749307829,0.6255388134168829,1.4324536609077523,2.5048635,3.2544038,0.7628082,0.027405782,5.9700685,43.413975,-175.93214,270.49756,26.0,0.7508221,0.01845403,42.79528,7.193718,243.8239,-369.6359,50,given_smb,false,routing,routing,th,pism_g450m_frontretreat_calfin_1972_2019.nc,pseudo_plastic,2.608046,3.309718
18,484185.96699373453,seasonal_calving_id_5_1975_2025.nc,8.616544306142366e-05,MAR3.9_MIROC-ESM-CHEM_rcp26_ocean_1960-2100_v4.nc,DMI-HIRHAM5_ERA_1975_2021_EPSG3413_4500M_MM.nc,0.00024058398389334903,1.2600701049239031,0.31412635300932434,1.6746771332859638,2.6790848,3.1941302,0.6520343,0.021019515,5.489525,43.477993,-434.77158,402.60745,32.0,0.7508221,0.01845403,42.79528,7.193718,243.8239,-369.6359,50,given_smb,false,routing,routing,th,pism_g450m_frontretreat_calfin_1972_2019.nc,pseudo_plastic,2.608046,3.309718
19,525715.1275635395,seasonal_calving_id_0_1975_2025.nc,9.84289368062156e-05,MAR3.9_NorESM1-M_rcp85_ocean_1960-2100_v4.nc,DMI-HIRHAM5_ERA_1975_2021_EPSG3413_4500M_MM.nc,0.0003518893488146654,1.1578506128072048,0.44069318361567467,1.1214635441621077,2.6384366,3.304644,0.71648926,0.015558795,5.665572,44.07359,-438.05527,188.79631,28.0,0.7508221,0.01845403,42.79528,7.193718,243.8239,-369.6359,50,given_smb,false,routing,routing,th,pism_g450m_frontretreat_calfin_1972_2019.nc,pseudo_plastic,2.608046,3.309718
20,576284.762341318,seasonal_calving_id_4_1975_2025.nc,9.672763773451127e-05,MAR3.9_IPSL-CM5-MR_rcp85_ocean_1960-2100_v4.nc,DMI-HIRHAM5_ERA_1975_2021_EPSG3413_4500M_MM.nc,0.0002813996429114429,1.209617623065845,0.4713601725786775,2.2620015201366455,2.8667636,3.3466003,0.7281095,0.020214852,6.5133696,43.945774,-488.6993,387.12204,13.0,0.7508221,0.01845403,42.79528,7.193718,243.8239,-369.6359,50,given_smb,false,routing,routing,th,pism_g450m_frontretreat_calfin_1972_2019.nc,pseudo_plastic,2.608046,3.309718
21,626599.9411386226,seasonal_calving_id_1_1975_2025.nc,0.00013125614973692886,MAR3.9_UKESM1-CM6_ssp585_ocean_1960-2100_v4.nc,DMI-HIRHAM5_ERA_1975_2021_EPSG3413_4500M_MM.nc,0.00029130126269183204,1.1689972358678293,0.6125126712535233,1.8898372950186944,2.315996,3.2894475,0.89709616,0.015769897,5.081259,40.980938,-380.76587,179.34837,21.0,0.7508221,0.01845403,42.79528,7.193718,243.8239,-369.6359,50,given_smb,false,routing,routing,th,pism_g450m_frontretreat_calfin_1972_2019.nc,pseudo_plastic,2.608046,3.309718
22,352856.1388992227,seasonal_calving_id_3_1975_2025.nc,0.000140343380851173,MAR3.9_CNRM-CM6_ssp585_ocean_1960-2100_v4.nc,MARv3.14-monthly-ERA5-1975_2023.nc,0.00028983267574749037,1.663960707432382,0.672597789791427,1.757990975367798,2.740302,3.3199914,0.78235334,0.023268014,7.158327,44.227505,-292.7611,397.5573,49.0,0.7508221,0.01845403,42.79528,7.193718,243.8239,-369.6359,50,given_smb,false,routing,routing,th,pism_g450m_frontretreat_calfin_1972_2019.nc,pseudo_plastic,2.608046,3.309718
23,404263.4010443604,seasonal_calving_id_1_1975_2025.nc,0.00013657358951191478,MAR3.9_MIROC-ESM-CHEM_rcp26_ocean_1960-2100_v4.nc,DMI-HIRHAM5_ERA_1975_2021_EPSG3413_4500M_MM.nc,0.00025288741485616963,1.3935362207129813,0.4158197795986197,1.6119852181745031,2.2937772,3.3226252,0.66953975,0.014205357,8.513236,44.545017,-593.3049,351.99164,36.0,0.7508221,0.01845403,42.79528,7.193718,243.8239,-369.6359,50,given_smb,false,routing,routing,th,pism_g450m_frontretreat_calfin_1972_2019.nc,pseudo_plastic,2.608046,3.309718
24,397470.38588945544,seasonal_calving_id_6_1975_2025.nc,9.492066040103547e-05,MAR3.9_HadGEM2-ES_rcp85_ocean_1960-2100_v4.nc,MARv3.14-monthly-ERA5-1975_2023.nc,0.00032502253257394887,1.0773628167548734,0.3487365485589904,2.732026889148515,2.8310783,3.2632785,0.8329439,0.021509806,7.8173375,42.1448,-203.3081,362.04514,31.0,0.7508221,0.01845403,42.79528,7.193718,243.8239,-369.6359,50,given_smb,false,routing,routing,th,pism_g450m_frontretreat_calfin_1972_2019.nc,pseudo_plastic,2.608046,3.309718
25,501464.46274329885,seasonal_calving_id_2_1975_2025.nc,8.291091689159843e-05,MAR3.9_CNRM-CM6_ssp126_ocean_1960-2100_v4.nc,DMI-HIRHAM5_ERA_1975_2021_EPSG3413_4500M_MM.nc,0.000266935196602604,1.3073166756812,0.6041364606202215,2.0571769005915423,2.259517,3.2816484,0.78262484,0.019645348,7.588902,42.572567,-267.76614,289.82153,30.0,0.7508221,0.01845403,42.79528,7.193718,243.8239,-369.6359,50,given_smb,false,routing,routing,th,pism_g450m_frontretreat_calfin_1972_2019.nc,pseudo_plastic,2.608046,3.309718
26,583286.7172684363,seasonal_calving_id_0_1975_2025.nc,0.00013010963952077813,MAR3.9_MIROC-ESM-CHEM_rcp26_ocean_1960-2100_v4.nc,MARv3.14-monthly-ERA5-1975_2023.nc,0.00034994428639945334,1.5293125046462681,0.3046168458532199,1.6289999655579148,2.8879488,3.2909305,0.6130051,0.021814436,5.560519,42.483536,-465.7234,371.76407,33.0,0.7508221,0.01845403,42.79528,7.193718,243.8239,-369.6359,50,given_smb,false,routing,routing,th,pism_g450m_frontretreat_calfin_1972_2019.nc,pseudo_plastic,2.608046,3.309718
27,555784.022633606,seasonal_calving_id_5_1975_2025.nc,0.00014853410707219055,MAR3.9_ACCESS1-3_rcp85_ocean_1960-2100_v4.nc,MARv3.14-monthly-ERA5-1975_2023.nc,0.000310809317072745,1.4699664600588882,0.3565137080515202,1.1782017735326962,2.8092515,3.2633154,0.71314985,0.025277836,7.3530054,41.785847,-295.4045,622.0319,14.0,0.7508221,0.01845403,42.79528,7.193718,243.8239,-369.6359,50,given_smb,false,routing,routing,th,pism_g450m_frontretreat_calfin_1972_2019.nc,pseudo_plastic,2.608046,3.309718
28,600395.5489148768,seasonal_calving_id_0_1975_2025.nc,0.00013749536295140397,MAR3.9_CNRM-ESM2_ssp585_ocean_1960-2100_v4.nc,MARv3.14-monthly-ERA5-1975_2023.nc,0.00024936689166534865,1.484008237266314,0.5765420159968693,1.7982331720185547,2.2837348,3.4032748,0.7908673,0.019421779,5.517182,43.888145,-515.17786,688.08606,13.0,0.7508221,0.01845403,42.79528,7.193718,243.8239,-369.6359,50,given_smb,false,routing,routing,th,pism_g450m_frontretreat_calfin_1972_2019.nc,pseudo_plastic,2.608046,3.309718
29,430089.64928671776,seasonal_calving_id_0_1975_2025.nc,0.0001058088482808418,MAR3.9_CNRM-CM6_ssp585_ocean_1960-2100_v4.nc,MARv3.14-monthly-ERA5-1975_2023.nc,0.0002803053048609839,1.4133270267328228,0.5123315019414234,1.9233055441439326,3.218172,3.3434198,0.7765873,0.022280645,9.837722,44.335087,-179.18753,491.05603,34.0,0.7508221,0.01845403,42.79528,7.193718,243.8239,-369.6359,50,given_smb,false,routing,routing,th,pism_g450m_frontretreat_calfin_1972_2019.nc,pseudo_plastic,2.608046,3.309718
30,539611.3307833392,seasonal_calving_id_0_1975_2025.nc,9.589756696420552e-05,MAR3.9_CNRM-ESM2_ssp585_ocean_1960-2100_v4.nc,MARv3.14-monthly-ERA5-1975_2023.nc,0.0002980440897872814,1.5109316568053837,0.6805862609301869,1.3787564533356387,2.2760248,3.3051476,0.8395028,0.019339323,5.708493,41.638878,-319.07294,115.32819,19.0,0.7508221,0.01845403,42.79528,7.193718,243.8239,-369.6359,50,given_smb,false,routing,routing,th,pism_g450m_frontretreat_calfin_1972_2019.nc,pseudo_plastic,2.608046,3.309718
31,420490.9541428117,seasonal_calving_id_-1_1975_2025.nc,7.940100809181888e-05,MAR3.9_HadGEM2-ES_rcp85_ocean_1960-2100_v4.nc,DMI-HIRHAM5_ERA_1975_2021_EPSG3413_4500M_MM.nc,0.0002941728652980978,1.5724576625167879,0.6862597633760306,2.1035255997177256,3.145525,3.3425982,0.7499792,0.020226441,8.355036,44.646095,-277.3667,198.1735,26.0,0.7508221,0.01845403,42.79528,7.193718,243.8239,-369.6359,50,given_smb,false,routing,routing,th,pism_g450m_frontretreat_calfin_1972_2019.nc,pseudo_plastic,2.608046,3.309718
32,623357.2979639606,seasonal_calving_id_5_1975_2025.nc,0.00010334550044956273,MAR3.9_CNRM-CM6_ssp585_ocean_1960-2100_v4.nc,MARv3.14-monthly-ERA5-1975_2023.nc,0.00025576693586298015,1.1228075540922287,0.37669510552425306,2.1265791760287835,3.0680711,3.2752306,0.70446396,0.018690214,9.459747,41.877182,-364.5032,275.05463,45.0,0.7508221,0.01845403,42.79528,7.193718,243.8239,-369.6359,50,given_smb,false,routing,routing,th,pism_g450m_frontretreat_calfin_1972_2019.nc,pseudo_plastic,2.608046,3.309718
33,472400.9715234519,seasonal_calving_id_3_1975_2025.nc,0.00014801240496598527,MAR3.9_CNRM-ESM2_ssp585_ocean_1960-2100_v4.nc,MARv3.14-monthly-ERA5-1975_2023.nc,0.0003457245580368195,1.4654584698393371,0.6351936448866664,2.313693795765179,2.8238409,3.3681862,0.7204006,0.023775421,7.2531757,42.413242,-415.91876,822.8716,36.0,0.7508221,0.01845403,42.79528,7.193718,243.8239,-369.6359,50,given_smb,false,routing,routing,th,pism_g450m_frontretreat_calfin_1972_2019.nc,pseudo_plastic,2.608046,3.309718
34,593875.0615325483,seasonal_calving_id_0_1975_2025.nc,0.00013899497210193175,MAR3.9_ACCESS1-3_rcp85_ocean_1960-2100_v4.nc,DMI-HIRHAM5_ERA_1975_2021_EPSG3413_4500M_MM.nc,0.00030946599470545194,1.1927875503227021,0.52662364070131,2.145467899957012,2.136554,3.318916,0.7113337,0.014452818,9.613873,43.22853,-387.5613,172.08907,48.0,0.7508221,0.01845403,42.79528,7.193718,243.8239,-369.6359,50,given_smb,false,routing,routing,th,pism_g450m_frontretreat_calfin_1972_2019.nc,pseudo_plastic,2.608046,3.309718
35,586170.5712361634,seasonal_calving_id_4_1975_2025.nc,0.0001338043544319494,MAR3.9_NorESM1-M_rcp85_ocean_1960-2100_v4.nc,DMI-HIRHAM5_ERA_1975_2021_EPSG3413_4500M_MM.nc,0.0003391278664879424,1.5231740640094649,0.49369014448201926,1.2621719834169063,2.5068884,3.3015504,0.5716956,0.015859134,6.2353983,42.25029,-470.27924,196.26047,14.0,0.7508221,0.01845403,42.79528,7.193718,243.8239,-369.6359,50,given_smb,false,routing,routing,th,pism_g450m_frontretreat_calfin_1972_2019.nc,pseudo_plastic,2.608046,3.309718
36,530413.1375782869,seasonal_calving_id_1_1975_2025.nc,8.081977520761543e-05,MAR3.9_MIROC-ESM-CHEM_rcp85_ocean_1960-2100_v4.nc,DMI-HIRHAM5_ERA_1975_2021_EPSG3413_4500M_MM.nc,0.00027812810112975343,1.676590957988338,0.30373782594692406,1.404759720576443,2.7271194,3.2364435,0.4994295,0.02712401,8.28519,42.754936,-338.38165,407.3932,10.0,0.7508221,0.01845403,42.79528,7.193718,243.8239,-369.6359,50,given_smb,false,routing,routing,th,pism_g450m_frontretreat_calfin_1972_2019.nc,pseudo_plastic,2.608046,3.309718
37,630931.8429021114,seasonal_calving_id_6_1975_2025.nc,0.00010922320788300105,MAR3.9_CNRM-CM6_ssp585_ocean_1960-2100_v4.nc,DMI-HIRHAM5_ERA_1975_2021_EPSG3413_4500M_MM.nc,0.00033004196496307716,1.561998375347234,0.6555294662758223,1.7251003838970083,2.4974868,3.3177044,0.57390547,0.016272575,9.432859,41.8521,-495.72577,194.48354,31.0,0.7508221,0.01845403,42.79528,7.193718,243.8239,-369.6359,50,given_smb,false,routing,routing,th,pism_g450m_frontretreat_calfin_1972_2019.nc,pseudo_plastic,2.608046,3.309718
38,637954.8072992121,seasonal_calving_id_1_1975_2025.nc,0.00012424645725664306,MAR3.9_CSIRO-Mk3.6_rcp85_ocean_1960-2100_v4.nc,DMI-HIRHAM5_ERA_1975_2021_EPSG3413_4500M_MM.nc,0.00032121363921225094,1.2911193415260076,0.48053754287882533,1.1521897641924883,2.5330825,3.3366177,0.739622,0.019290986,5.473079,43.78489,-466.4525,253.341,4.0,0.7508221,0.01845403,42.79528,7.193718,243.8239,-369.6359,50,given_smb,false,routing,routing,th,pism_g450m_frontretreat_calfin_1972_2019.nc,pseudo_plastic,2.608046,3.309718
39,369455.03653764597,seasonal_calving_id_1_1975_2025.nc,0.0001257059318922623,MAR3.9_UKESM1-CM6_ssp585_ocean_1960-2100_v4.nc,DMI-HIRHAM5_ERA_1975_2021_EPSG3413_4500M_MM.nc,0.0003455403239642752,1.6073309639574334,0.4357775045580782,2.3679799732978903,3.113363,3.3918295,0.82544726,0.01882345,9.482062,43.56075,-474.57306,119.93315,5.0,0.7508221,0.01845403,42.79528,7.193718,243.8239,-369.6359,50,given_smb,false,routing,routing,th,pism_g450m_frontretreat_calfin_1972_2019.nc,pseudo_plastic,2.608046,3.309718
40,478516.09744516225,seasonal_calving_id_-1_1975_2025.nc,0.00012106057338460576,MAR3.9_HadGEM2-ES_rcp85_ocean_1960-2100_v4.nc,DMI-HIRHAM5_ERA_1975_2021_EPSG3413_4500M_MM.nc,0.0003477595320123726,1.6012930794616411,0.6021987328039395,1.6858643835779183,2.8413498,3.306745,0.68467605,0.021134796,7.877483,41.074688,-361.49078,212.44159,1.0,0.7508221,0.01845403,42.79528,7.193718,243.8239,-369.6359,50,given_smb,false,routing,routing,th,pism_g450m_frontretreat_calfin_1972_2019.nc,pseudo_plastic,2.608046,3.309718
41,606879.6762260601,seasonal_calving_id_-1_1975_2025.nc,0.00011968815704430075,MAR3.9_CNRM-CM6_ssp126_ocean_1960-2100_v4.nc,DMI-HIRHAM5_ERA_1975_2021_EPSG3413_4500M_MM.nc,0.00028755523926599297,1.1084604960211544,0.3896984842226634,2.405159936449503,2.3388839,3.2847228,0.84989524,0.012436877,9.038059,43.70168,-341.86804,108.13546,23.0,0.7508221,0.01845403,42.79528,7.193718,243.8239,-369.6359,50,given_smb,false,routing,routing,th,pism_g450m_frontretreat_calfin_1972_2019.nc,pseudo_plastic,2.608046,3.309718
42,459783.03734610794,seasonal_calving_id_2_1975_2025.nc,0.00011815304041335982,MAR3.9_UKESM1-CM6_ssp585_ocean_1960-2100_v4.nc,MARv3.14-monthly-ERA5-1975_2023.nc,0.0002974802008669349,1.559375523591842,0.3268352602982907,1.7742652312691607,2.4658012,3.3225858,0.86780226,0.01954907,6.7693505,42.32434,-276.2516,244.7286,25.0,0.7508221,0.01845403,42.79528,7.193718,243.8239,-369.6359,50,given_smb,false,routing,routing,th,pism_g450m_frontretreat_calfin_1972_2019.nc,pseudo_plastic,2.608046,3.309718
43,614664.7674491622,seasonal_calving_id_4_1975_2025.nc,0.0001137534526513457,MAR3.9_HadGEM2-ES_rcp85_ocean_1960-2100_v4.nc,MARv3.14-monthly-ERA5-1975_2023.nc,0.0002573816933803433,1.1475340253383948,0.5807757243207922,2.33071262508644,2.5239651,3.3348196,0.7672493,0.020694043,7.0851674,42.156063,-469.50223,419.68607,23.0,0.7508221,0.01845403,42.79528,7.193718,243.8239,-369.6359,50,given_smb,false,routing,routing,th,pism_g450m_frontretreat_calfin_1972_2019.nc,pseudo_plastic,2.608046,3.309718
44,407767.5279244325,seasonal_calving_id_1_1975_2025.nc,0.0001383945188414286,MAR3.9_MIROC-ESM-CHEM_rcp26_ocean_1960-2100_v4.nc,MARv3.14-monthly-ERA5-1975_2023.nc,0.0002497179884412507,1.632835419685661,0.4177760488588208,2.3571485612242635,2.729477,3.2742236,0.84795094,0.014805311,8.03595,43.96093,-238.08769,53.29747,14.0,0.7508221,0.01845403,42.79528,7.193718,243.8239,-369.6359,50,given_smb,false,routing,routing,th,pism_g450m_frontretreat_calfin_1972_2019.nc,pseudo_plastic,2.608046,3.309718
45,380083.0905849786,seasonal_calving_id_6_1975_2025.nc,0.00010551904830928591,MAR3.9_CSIRO-Mk3.6_rcp85_ocean_1960-2100_v4.nc,MARv3.14-monthly-ERA5-1975_2023.nc,0.0002553139743181909,1.6175287346833043,0.5569025603357255,2.6819945025019942,1.9810547,3.2668853,0.76399,0.016576577,6.586025,40.682297,-470.24155,290.15045,32.0,0.7508221,0.01845403,42.79528,7.193718,243.8239,-369.6359,50,given_smb,false,routing,routing,th,pism_g450m_frontretreat_calfin_1972_2019.nc,pseudo_plastic,2.608046,3.309718
46,505085.4019860149,seasonal_calving_id_-1_1975_2025.nc,0.00014195615908650958,MAR3.9_IPSL-CM5-MR_rcp85_ocean_1960-2100_v4.nc,MARv3.14-monthly-ERA5-1975_2023.nc,0.00030553408685232876,1.0140974779367242,0.6651201988270852,1.9373321141040019,2.2980404,3.3203108,0.61808074,0.016766148,7.641347,42.804253,-408.3857,292.15912,20.0,0.7508221,0.01845403,42.79528,7.193718,243.8239,-369.6359,50,given_smb,false,routing,routing,th,pism_g450m_frontretreat_calfin_1972_2019.nc,pseudo_plastic,2.608046,3.309718
47,608232.3586812917,seasonal_calving_id_6_1975_2025.nc,7.592401484997201e-05,MAR3.9_ACCESS1-3_rcp85_ocean_1960-2100_v4.nc,DMI-HIRHAM5_ERA_1975_2021_EPSG3413_4500M_MM.nc,0.00035317279937604123,1.323100078636632,0.4512423834543884,1.9705831904567406,2.097098,3.2819324,0.75166655,0.015582391,5.809698,42.87345,-541.6129,465.97403,29.0,0.7508221,0.01845403,42.79528,7.193718,243.8239,-369.6359,50,given_smb,false,routing,routing,th,pism_g450m_frontretreat_calfin_1972_2019.nc,pseudo_plastic,2.608046,3.309718
48,451815.3301698532,seasonal_calving_id_6_1975_2025.nc,0.00012263252080359463,MAR3.9_IPSL-CM5-MR_rcp85_ocean_1960-2100_v4.nc,DMI-HIRHAM5_ERA_1975_2021_EPSG3413_4500M_MM.nc,0.0003072541008465039,1.1047241303116462,0.5070636164797118,2.527408069198184,2.214734,3.3353853,0.78259194,0.019876594,5.757274,40.47447,-330.19995,250.0483,44.0,0.7508221,0.01845403,42.79528,7.193718,243.8239,-369.6359,50,given_smb,false,routing,routing,th,pism_g450m_frontretreat_calfin_1972_2019.nc,pseudo_plastic,2.608046,3.309718
49,435088.4489587486,seasonal_calving_id_5_1975_2025.nc,0.00011287809043297284,MAR3.9_MIROC-ESM-CHEM_rcp85_ocean_1960-2100_v4.nc,MARv3.14-monthly-ERA5-1975_2023.nc,0.0003581282713536695,1.162625458874603,0.6383281276145344,2.3064824574847673,2.4147923,3.3031945,0.6346582,0.019287674,6.8592925,40.53394,-410.77945,247.95403,29.0,0.7508221,0.01845403,42.79528,7.193718,243.8239,-369.6359,50,given_smb,false,routing,routing,th,pism_g450m_frontretreat_calfin_1972_2019.nc,pseudo_plastic,2.608046,3.309718
50,621092.1233191242,seasonal_calving_id_3_1975_2025.nc,0.00013094857823616545,MAR3.9_IPSL-CM5-MR_rcp85_ocean_1960-2100_v4.nc,MARv3.14-monthly-ERA5-1975_2023.nc,0.00028384749676701657,1.6947810654824615,0.5296979715930835,1.4179920773221315,2.892239,3.333252,0.6431009,0.023884403,6.1440063,42.216194,-536.6201,351.15887,30.0,0.7508221,0.01845403,42.79528,7.193718,243.8239,-369.6359,50,given_smb,false,routing,routing,th,pism_g450m_frontretreat_calfin_1972_2019.nc,pseudo_plastic,2.608046,3.309718
51,513213.58576994727,seasonal_calving_id_4_1975_2025.nc,7.784852522519797e-05,MAR3.9_CNRM-CM6_ssp585_ocean_1960-2100_v4.nc,DMI-HIRHAM5_ERA_1975_2021_EPSG3413_4500M_MM.nc,0.0002588567460916967,1.5123113608516057,0.39533563099450175,1.1074590754235012,2.8599021,3.3247015,0.731322,0.014786019,7.271028,44.15025,-406.41446,223.29884,22.0,0.7508221,0.01845403,42.79528,7.193718,243.8239,-369.6359,50,given_smb,false,routing,routing,th,pism_g450m_frontretreat_calfin_1972_2019.nc,pseudo_plastic,2.608046,3.309718
52,644252.7176136553,seasonal_calving_id_5_1975_2025.nc,8.644463053587255e-05,MAR3.9_ACCESS1-3_rcp85_ocean_1960-2100_v4.nc,DMI-HIRHAM5_ERA_1975_2021_EPSG3413_4500M_MM.nc,0.000335503417238763,1.0432625012759549,0.5709222213027824,1.993705790418734,2.898511,3.260166,0.65426123,0.018197423,9.296422,43.02403,-371.42676,219.36461,25.0,0.7508221,0.01845403,42.79528,7.193718,243.8239,-369.6359,50,given_smb,false,routing,routing,th,pism_g450m_frontretreat_calfin_1972_2019.nc,pseudo_plastic,2.608046,3.309718
53,589734.1387580979,seasonal_calving_id_4_1975_2025.nc,8.715649196027898e-05,MAR3.9_CSIRO-Mk3.6_rcp85_ocean_1960-2100_v4.nc,DMI-HIRHAM5_ERA_1975_2021_EPSG3413_4500M_MM.nc,0.0002882064452684868,1.3894134704821104,0.4857047773252092,1.2403589960333645,2.507645,3.2261858,0.71613634,0.02193065,8.152596,42.838123,-238.35233,383.58746,5.0,0.7508221,0.01845403,42.79528,7.193718,243.8239,-369.6359,50,given_smb,false,routing,routing,th,pism_g450m_frontretreat_calfin_1972_2019.nc,pseudo_plastic,2.608046,3.309718
54,355231.7780219586,seasonal_calving_id_0_1975_2025.nc,0.00011411265001186113,MAR3.9_ACCESS1-3_rcp85_ocean_1960-2100_v4.nc,DMI-HIRHAM5_ERA_1975_2021_EPSG3413_4500M_MM.nc,0.00034351058910340445,1.4962394696205357,0.6482393614771889,1.5945396339443436,2.9736884,3.34728,0.6564371,0.016474789,5.3925805,44.448627,-460.91135,237.36256,28.0,0.7508221,0.01845403,42.79528,7.193718,243.8239,-369.6359,50,given_smb,false,routing,routing,th,pism_g450m_frontretreat_calfin_1972_2019.nc,pseudo_plastic,2.608046,3.309718
55,604382.3266404243,seasonal_calving_id_3_1975_2025.nc,0.00014550162713533992,MAR3.9_CNRM-ESM2_ssp585_ocean_1960-2100_v4.nc,DMI-HIRHAM5_ERA_1975_2021_EPSG3413_4500M_MM.nc,0.0003104095851733245,1.003377041037359,0.457147938321812,2.7963631372780893,2.6098673,3.2181995,0.6314919,0.017949937,9.323015,42.71505,-193.10016,79.8311,21.0,0.7508221,0.01845403,42.79528,7.193718,243.8239,-369.6359,50,given_smb,false,routing,routing,th,pism_g450m_frontretreat_calfin_1972_2019.nc,pseudo_plastic,2.608046,3.309718
56,440157.4443423221,seasonal_calving_id_0_1975_2025.nc,8.408458253412351e-05,MAR3.9_NorESM1-M_rcp85_ocean_1960-2100_v4.nc,DMI-HIRHAM5_ERA_1975_2021_EPSG3413_4500M_MM.nc,0.00028550903436659836,1.4382641597981478,0.6701810641995349,2.0059874233883597,2.2524936,3.3191574,0.76837486,0.021882096,5.5699883,40.222878,-388.20325,449.97342,12.0,0.7508221,0.01845403,42.79528,7.193718,243.8239,-369.6359,50,given_smb,false,routing,routing,th,pism_g450m_frontretreat_calfin_1972_2019.nc,pseudo_plastic,2.608046,3.309718
57,549199.572638721,seasonal_calving_id_3_1975_2025.nc,0.0001271061717060933,MAR3.9_CNRM-ESM2_ssp585_ocean_1960-2100_v4.nc,DMI-HIRHAM5_ERA_1975_2021_EPSG3413_4500M_MM.nc,0.0003027088962141196,1.240806617639297,0.33509500287660415,1.9061321625534506,2.6642632,3.3048024,0.6408698,0.018095205,6.0473113,40.19641,-403.24622,185.0343,14.0,0.7508221,0.01845403,42.79528,7.193718,243.8239,-369.6359,50,given_smb,false,routing,routing,th,pism_g450m_frontretreat_calfin_1972_2019.nc,pseudo_plastic,2.608046,3.309718
58,510240.5817367477,seasonal_calving_id_6_1975_2025.nc,0.00012070036248618796,MAR3.9_CSIRO-Mk3.6_rcp85_ocean_1960-2100_v4.nc,MARv3.14-monthly-ERA5-1975_2023.nc,0.000263155221689081,1.3166753402582734,0.3389999558932507,1.6463772775201855,2.872218,3.3071568,0.63368374,0.01616189,5.6747723,44.163685,-399.10983,149.81972,11.0,0.7508221,0.01845403,42.79528,7.193718,243.8239,-369.6359,50,given_smb,false,routing,routing,th,pism_g450m_frontretreat_calfin_1972_2019.nc,pseudo_plastic,2.608046,3.309718
59,632117.3991704523,seasonal_calving_id_2_1975_2025.nc,0.00010701097058201658,MAR3.9_ACCESS1-3_rcp85_ocean_1960-2100_v4.nc,MARv3.14-monthly-ERA5-1975_2023.nc,0.0003423068208136388,1.4981170575447385,0.6796924727881251,1.7934542125397375,2.9703994,3.301193,0.6914776,0.02909612,6.623781,43.07275,-298.02115,493.0259,49.0,0.7508221,0.01845403,42.79528,7.193718,243.8239,-369.6359,50,given_smb,false,routing,routing,th,pism_g450m_frontretreat_calfin_1972_2019.nc,pseudo_plastic,2.608046,3.309718
60,465781.507951887,seasonal_calving_id_2_1975_2025.nc,9.295116636936575e-05,MAR3.9_IPSL-CM5-MR_rcp85_ocean_1960-2100_v4.nc,MARv3.14-monthly-ERA5-1975_2023.nc,0.00025364756641022164,1.1989456651736203,0.5879971203952172,1.2201402363820486,2.2556527,3.3513672,0.7619804,0.023628721,7.0704474,41.677303,-438.49384,495.009,18.0,0.7508221,0.01845403,42.79528,7.193718,243.8239,-369.6359,50,given_smb,false,routing,routing,th,pism_g450m_frontretreat_calfin_1972_2019.nc,pseudo_plastic,2.608046,3.309718
61,432732.19332888734,seasonal_calving_id_1_1975_2025.nc,0.00011919856627270626,MAR3.9_CSIRO-Mk3.6_rcp85_ocean_1960-2100_v4.nc,MARv3.14-monthly-ERA5-1975_2023.nc,0.00024156511104559303,1.0083262323643707,0.6410741409479577,1.8316599538911165,2.2448826,3.3347216,0.8735455,0.01901253,6.381069,43.7179,-364.16672,183.64502,9.0,0.7508221,0.01845403,42.79528,7.193718,243.8239,-369.6359,50,given_smb,false,routing,routing,th,pism_g450m_frontretreat_calfin_1972_2019.nc,pseudo_plastic,2.608046,3.309718
62,387065.96256831137,seasonal_calving_id_3_1975_2025.nc,0.00012183827591796035,MAR3.9_MIROC-ESM-CHEM_rcp85_ocean_1960-2100_v4.nc,DMI-HIRHAM5_ERA_1975_2021_EPSG3413_4500M_MM.nc,0.00035713785354850276,1.225267273417433,0.40905709094141407,2.179201799546221,2.4582314,3.3136423,0.6751086,0.018638462,8.377978,40.361015,-323.71338,213.38301,44.0,0.7508221,0.01845403,42.79528,7.193718,243.8239,-369.6359,50,given_smb,false,routing,routing,th,pism_g450m_frontretreat_calfin_1972_2019.nc,pseudo_plastic,2.608046,3.309718
63,542287.3289370917,seasonal_calving_id_4_1975_2025.nc,0.0001428984550027717,MAR3.9_UKESM1-CM6_ssp585_ocean_1960-2100_v4.nc,DMI-HIRHAM5_ERA_1975_2021_EPSG3413_4500M_MM.nc,0.0003377351605441765,1.353865734520746,0.4916244388285761,2.6166374118820293,2.4714067,3.298022,0.735564,0.015912205,5.182811,41.89344,-526.5779,266.4183,28.0,0.7508221,0.01845403,42.79528,7.193718,243.8239,-369.6359,50,given_smb,false,routing,routing,th,pism_g450m_frontretreat_calfin_1972_2019.nc,pseudo_plastic,2.608046,3.309718
64,462877.7868322239,seasonal_calving_id_6_1975_2025.nc,0.000135680191592134,MAR3.9_ACCESS1-3_rcp85_ocean_1960-2100_v4.nc,DMI-HIRHAM5_ERA_1975_2021_EPSG3413_4500M_MM.nc,0.0002444434598886948,1.3393994877103823,0.3676981736012317,1.5215367547792475,2.40912,3.3044522,0.5520637,0.020203134,5.107377,42.65191,-545.628,295.43927,46.0,0.7508221,0.01845403,42.79528,7.193718,243.8239,-369.6359,50,given_smb,false,routing,routing,th,pism_g450m_frontretreat_calfin_1972_2019.nc,pseudo_plastic,2.608046,3.309718
65,452282.9971246383,seasonal_calving_id_1_1975_2025.nc,0.00010972009767220312,MAR3.9_CNRM-CM6_ssp126_ocean_1960-2100_v4.nc,MARv3.14-monthly-ERA5-1975_2023.nc,0.00033381048865675864,1.1883448564415737,0.3718093709346291,1.3163578881559808,2.7715044,3.271869,0.7786271,0.02194327,8.886438,42.82104,-267.2961,349.42508,20.0,0.7508221,0.01845403,42.79528,7.193718,243.8239,-369.6359,50,given_smb,false,routing,routing,th,pism_g450m_frontretreat_calfin_1972_2019.nc,pseudo_plastic,2.608046,3.309718
66,574516.0883406431,seasonal_calving_id_3_1975_2025.nc,8.176319239180294e-05,MAR3.9_ACCESS1-3_rcp85_ocean_1960-2100_v4.nc,MARv3.14-monthly-ERA5-1975_2023.nc,0.0003255047247564598,1.5923871271568646,0.49968366525342994,1.4600567735774193,2.5958474,3.2047088,0.6347397,0.020709485,6.8511457,41.81412,-372.07764,319.35654,32.0,0.7508221,0.01845403,42.79528,7.193718,243.8239,-369.6359,50,given_smb,false,routing,routing,th,pism_g450m_frontretreat_calfin_1972_2019.nc,pseudo_plastic,2.608046,3.309718
67,559523.0703224179,seasonal_calving_id_2_1975_2025.nc,0.00010407868041186795,MAR3.9_CSIRO-Mk3.6_rcp85_ocean_1960-2100_v4.nc,DMI-HIRHAM5_ERA_1975_2021_EPSG3413_4500M_MM.nc,0.0002789682039448993,1.6275970447389745,0.5369949805072235,2.6726862316693945,3.0831223,3.3172417,0.6973771,0.021546487,5.0421476,41.489323,-438.736,262.2818,25.0,0.7508221,0.01845403,42.79528,7.193718,243.8239,-369.6359,50,given_smb,false,routing,routing,th,pism_g450m_frontretreat_calfin_1972_2019.nc,pseudo_plastic,2.608046,3.309718
68,580705.2688184844,seasonal_calving_id_4_1975_2025.nc,8.880378569609472e-05,MAR3.9_IPSL-CM5-MR_rcp85_ocean_1960-2100_v4.nc,MARv3.14-monthly-ERA5-1975_2023.nc,0.0002741986729397764,1.4223808995542118,0.42453665481543534,1.951504306887422,2.8331063,3.2991636,0.5651143,0.017893678,8.967991,41.876423,-442.17374,259.05746,21.0,0.7508221,0.01845403,42.79528,7.193718,243.8239,-369.6359,50,given_smb,false,routing,routing,th,pism_g450m_frontretreat_calfin_1972_2019.nc,pseudo_plastic,2.608046,3.309718
69,497568.3308007909,seasonal_calving_id_5_1975_2025.nc,0.00010737333608973001,MAR3.9_CNRM-CM6_ssp126_ocean_1960-2100_v4.nc,MARv3.14-monthly-ERA5-1975_2023.nc,0.00027136289732588545,1.380833723680616,0.520492115311078,1.7378202451671974,2.8261926,3.3106635,0.5619926,0.02551317,8.101139,40.75627,-392.98422,406.49786,25.0,0.7508221,0.01845403,42.79528,7.193718,243.8239,-369.6359,50,given_smb,false,routing,routing,th,pism_g450m_frontretreat_calfin_1972_2019.nc,pseudo_plastic,2.608046,3.309718
70,518771.8635233069,seasonal_calving_id_6_1975_2025.nc,7.512172139601442e-05,MAR3.9_UKESM1-CM6_ssp585_ocean_1960-2100_v4.nc,MARv3.14-monthly-ERA5-1975_2023.nc,0.0002998405432686197,1.0754305452368698,0.4479977323082459,1.1863718034954267,2.0411563,3.2436466,0.67279047,0.015946697,6.8098297,43.11882,-432.58807,222.15762,21.0,0.7508221,0.01845403,42.79528,7.193718,243.8239,-369.6359,50,given_smb,false,routing,routing,th,pism_g450m_frontretreat_calfin_1972_2019.nc,pseudo_plastic,2.608046,3.309718
71,547936.2420352744,seasonal_calving_id_-1_1975_2025.nc,0.00013981288957473515,MAR3.9_CNRM-CM6_ssp126_ocean_1960-2100_v4.nc,MARv3.14-monthly-ERA5-1975_2023.nc,0.0003333771724316007,1.3700266742743934,0.3635900886933828,2.1664461125502408,2.1891396,3.2743812,0.8050015,0.020109376,5.859025,40.06901,-409.5375,321.89975,9.0,0.7508221,0.01845403,42.79528,7.193718,243.8239,-369.6359,50,given_smb,false,routing,routing,th,pism_g450m_frontretreat_calfin_1972_2019.nc,pseudo_plastic,2.608046,3.309718
72,495249.8676800094,seasonal_calving_id_3_1975_2025.nc,0.00011087530870166196,MAR3.9_IPSL-CM5-MR_rcp85_ocean_1960-2100_v4.nc,DMI-HIRHAM5_ERA_1975_2021_EPSG3413_4500M_MM.nc,0.000322169900526006,1.6539755812146613,0.4044524302959595,2.5789132052603474,2.4923015,3.3037143,0.6452765,0.019760648,7.595014,42.017456,-422.22784,311.9841,0.0,0.7508221,0.01845403,42.79528,7.193718,243.8239,-369.6359,50,given_smb,false,routing,routing,th,pism_g450m_frontretreat_calfin_1972_2019.nc,pseudo_plastic,2.608046,3.309718
73,475419.12375944684,seasonal_calving_id_5_1975_2025.nc,0.00011488177847965845,MAR3.9_CNRM-CM6_ssp585_ocean_1960-2100_v4.nc,MARv3.14-monthly-ERA5-1975_2023.nc,0.0003276908032375828,1.2949197642784236,0.6455602004803562,2.0327052135366235,2.0279834,3.3086016,0.6619246,0.017051844,8.125106,41.37829,-311.33426,138.1649,4.0,0.7508221,0.01845403,42.79528,7.193718,243.8239,-369.6359,50,given_smb,false,routing,routing,th,pism_g450m_frontretreat_calfin_1972_2019.nc,pseudo_plastic,2.608046,3.309718
74,372543.7157485334,seasonal_calving_id_5_1975_2025.nc,9.004649726997982e-05,MAR3.9_CSIRO-Mk3.6_rcp85_ocean_1960-2100_v4.nc,DMI-HIRHAM5_ERA_1975_2021_EPSG3413_4500M_MM.nc,0.0003489100163500212,1.1795876882792518,0.3720252834183674,2.2796247390407,2.2141628,3.3476648,0.89354914,0.018873334,6.778761,42.415184,-384.9773,223.35918,38.0,0.7508221,0.01845403,42.79528,7.193718,243.8239,-369.6359,50,given_smb,false,routing,routing,th,pism_g450m_frontretreat_calfin_1972_2019.nc,pseudo_plastic,2.608046,3.309718
75,444132.05993575585,seasonal_calving_id_5_1975_2025.nc,7.832337956983307e-05,MAR3.9_MIROC-ESM-CHEM_rcp26_ocean_1960-2100_v4.nc,DMI-HIRHAM5_ERA_1975_2021_EPSG3413_4500M_MM.nc,0.00029201384904151937,1.312566282333538,0.45364788331512945,1.8746723787226474,2.427303,3.2852032,0.6562624,0.015999656,5.0514374,42.895164,-459.983,197.3395,37.0,0.7508221,0.01845403,42.79528,7.193718,243.8239,-369.6359,50,given_smb,false,routing,routing,th,pism_g450m_frontretreat_calfin_1972_2019.nc,pseudo_plastic,2.608046,3.309718
76,491823.42194218957,seasonal_calving_id_-1_1975_2025.nc,8.39756438976937e-05,MAR3.9_CNRM-CM6_ssp126_ocean_1960-2100_v4.nc,MARv3.14-monthly-ERA5-1975_2023.nc,0.0003173977427567545,1.035479975252195,0.550750925490715,2.460326622183006,2.7138221,3.2793512,0.7204987,0.02520311,7.066739,40.455288,-329.99234,444.22736,9.0,0.7508221,0.01845403,42.79528,7.193718,243.8239,-369.6359,50,given_smb,false,routing,routing,th,pism_g450m_frontretreat_calfin_1972_2019.nc,pseudo_plastic,2.608046,3.309718
77,489684.07521263923,seasonal_calving_id_5_1975_2025.nc,0.0001449484735238099,MAR3.9_NorESM1-M_rcp85_ocean_1960-2100_v4.nc,MARv3.14-monthly-ERA5-1975_2023.nc,0.0003415014473880508,1.5439344816371119,0.46176390135204,1.6958032818974211,1.7553748,3.372459,0.77752346,0.013171813,8.118524,42.295578,-556.3108,276.0191,6.0,0.7508221,0.01845403,42.79528,7.193718,243.8239,-369.6359,50,given_smb,false,routing,routing,th,pism_g450m_frontretreat_calfin_1972_2019.nc,pseudo_plastic,2.608046,3.309718
78,422483.2290195482,seasonal_calving_id_1_1975_2025.nc,8.14373909219924e-05,MAR3.9_MIROC-ESM-CHEM_rcp26_ocean_1960-2100_v4.nc,DMI-HIRHAM5_ERA_1975_2021_EPSG3413_4500M_MM.nc,0.000276980209341118,1.4036669716726915,0.43121143866985967,1.5831046946580374,2.4487584,3.2499888,0.9186587,0.014915836,6.2860208,43.109825,-310.55585,223.68701,8.0,0.7508221,0.01845403,42.79528,7.193718,243.8239,-369.6359,50,given_smb,false,routing,routing,th,pism_g450m_frontretreat_calfin_1972_2019.nc,pseudo_plastic,2.608046,3.309718
79,527107.6868058103,seasonal_calving_id_2_1975_2025.nc,0.00010167646293061721,MAR3.9_MIROC-ESM-CHEM_rcp85_ocean_1960-2100_v4.nc,DMI-HIRHAM5_ERA_1975_2021_EPSG3413_4500M_MM.nc,0.00026129066518738473,1.5754586802432549,0.546372050969395,1.4826653780184234,2.7607048,3.3174527,0.69168186,0.019235602,10.843923,43.646687,-573.07666,713.3848,2.0,0.7508221,0.01845403,42.79528,7.193718,243.8239,-369.6359,50,given_smb,false,routing,routing,th,pism_g450m_frontretreat_calfin_1972_2019.nc,pseudo_plastic,2.608046,3.309718
80,536705.9365582172,seasonal_calving_id_1_1975_2025.nc,9.33521721102284e-05,MAR3.9_MIROC-ESM-CHEM_rcp85_ocean_1960-2100_v4.nc,MARv3.14-monthly-ERA5-1975_2023.nc,0.00031210777632144495,1.641049324549389,0.40320318830865015,2.5960236774606664,2.976513,3.2921016,0.816215,0.017961089,6.239559,43.017757,-393.21103,436.1891,14.0,0.7508221,0.01845403,42.79528,7.193718,243.8239,-369.6359,50,given_smb,false,routing,routing,th,pism_g450m_frontretreat_calfin_1972_2019.nc,pseudo_plastic,2.608046,3.309718
81,362349.70815480675,seasonal_calving_id_5_1975_2025.nc,9.956914154804459e-05,MAR3.9_IPSL-CM5-MR_rcp85_ocean_1960-2100_v4.nc,DMI-HIRHAM5_ERA_1975_2021_EPSG3413_4500M_MM.nc,0.00026572652784534077,1.461061684493783,0.38053480472280854,1.5687201822313472,2.0474865,3.2872338,0.6460685,0.021303324,9.455385,43.146572,-339.08508,486.1415,40.0,0.7508221,0.01845403,42.79528,7.193718,243.8239,-369.6359,50,given_smb,false,routing,routing,th,pism_g450m_frontretreat_calfin_1972_2019.nc,pseudo_plastic,2.608046,3.309718
82,562357.0732888089,seasonal_calving_id_1_1975_2025.nc,0.00014169831503479285,MAR3.9_MIROC-ESM-CHEM_rcp85_ocean_1960-2100_v4.nc,DMI-HIRHAM5_ERA_1975_2021_EPSG3413_4500M_MM.nc,0.0002929108408294926,1.1148018365626107,0.5033994757077976,2.705121223304703,2.509982,3.3000238,0.6599476,0.02145322,7.6565766,40.7574,-276.30515,102.997406,22.0,0.7508221,0.01845403,42.79528,7.193718,243.8239,-369.6359,50,given_smb,false,routing,routing,th,pism_g450m_frontretreat_calfin_1972_2019.nc,pseudo_plastic,2.608046,3.309718
83,375948.0671324868,seasonal_calving_id_-1_1975_2025.nc,0.00010058763414569551,MAR3.9_CNRM-CM6_ssp126_ocean_1960-2100_v4.nc,MARv3.14-monthly-ERA5-1975_2023.nc,0.00031911182214547433,1.2171162258741037,0.5666790898242435,2.254091932715571,2.2528617,3.3318238,0.6557979,0.014720808,10.026407,42.84417,-371.37082,270.16415,26.0,0.7508221,0.01845403,42.79528,7.193718,243.8239,-369.6359,50,given_smb,false,routing,routing,th,pism_g450m_frontretreat_calfin_1972_2019.nc,pseudo_plastic,2.608046,3.309718
84,413254.68758583424,seasonal_calving_id_4_1975_2025.nc,7.6756505151283e-05,MAR3.9_CNRM-CM6_ssp585_ocean_1960-2100_v4.nc,MARv3.14-monthly-ERA5-1975_2023.nc,0.0002618974306289407,1.582082369027301,0.3844713797209091,1.5262772566729574,2.4262645,3.3037837,0.7078746,0.016115226,10.062677,41.288254,-373.64435,206.32697,39.0,0.7508221,0.01845403,42.79528,7.193718,243.8239,-369.6359,50,given_smb,false,routing,routing,th,pism_g450m_frontretreat_calfin_1972_2019.nc,pseudo_plastic,2.608046,3.309718
85,517746.4319329184,seasonal_calving_id_6_1975_2025.nc,0.0001275992526394093,MAR3.9_HadGEM2-ES_rcp85_ocean_1960-2100_v4.nc,DMI-HIRHAM5_ERA_1975_2021_EPSG3413_4500M_MM.nc,0.00024577109417685153,1.5335237704025668,0.6226607735866729,2.753977826887173,2.5116746,3.2463295,0.565664,0.02247893,6.6978393,44.51039,-412.00073,414.46146,6.0,0.7508221,0.01845403,42.79528,7.193718,243.8239,-369.6359,50,given_smb,false,routing,routing,th,pism_g450m_frontretreat_calfin_1972_2019.nc,pseudo_plastic,2.608046,3.309718
86,617246.8177480674,seasonal_calving_id_2_1975_2025.nc,8.935403061400349e-05,MAR3.9_MIROC-ESM-CHEM_rcp85_ocean_1960-2100_v4.nc,MARv3.14-monthly-ERA5-1975_2023.nc,0.00026920986568139816,1.1450203350969366,0.5932025317546856,1.3700267896444942,2.361079,3.306648,0.7554919,0.013080441,8.809088,43.57658,-325.79053,46.537434,28.0,0.7508221,0.01845403,42.79528,7.193718,243.8239,-369.6359,50,given_smb,false,routing,routing,th,pism_g450m_frontretreat_calfin_1972_2019.nc,pseudo_plastic,2.608046,3.309718
87,378668.9655064423,seasonal_calving_id_2_1975_2025.nc,0.00011659967267909317,MAR3.9_NorESM1-M_rcp85_ocean_1960-2100_v4.nc,MARv3.14-monthly-ERA5-1975_2023.nc,0.0002953267355358533,1.2575511180348036,0.6173350823026515,1.1379147155310394,2.5824666,3.279424,0.8523042,0.013292796,5.4321933,43.32348,-376.5771,160.49254,36.0,0.7508221,0.01845403,42.79528,7.193718,243.8239,-369.6359,50,given_smb,false,routing,routing,th,pism_g450m_frontretreat_calfin_1972_2019.nc,pseudo_plastic,2.608046,3.309718
88,391061.52019638073,seasonal_calving_id_4_1975_2025.nc,0.00014344088948184554,MAR3.9_NorESM1-M_rcp85_ocean_1960-2100_v4.nc,DMI-HIRHAM5_ERA_1975_2021_EPSG3413_4500M_MM.nc,0.0002473441969350914,1.0958811927596146,0.6575759057288111,2.774245599428319,2.2850907,3.2885685,0.8876898,0.016559023,11.113538,41.305904,-169.43942,238.488,34.0,0.7508221,0.01845403,42.79528,7.193718,243.8239,-369.6359,50,given_smb,false,routing,routing,th,pism_g450m_frontretreat_calfin_1972_2019.nc,pseudo_plastic,2.608046,3.309718
89,597759.156931443,seasonal_calving_id_3_1975_2025.nc,0.0001261507674905702,MAR3.9_HadGEM2-ES_rcp85_ocean_1960-2100_v4.nc,MARv3.14-monthly-ERA5-1975_2023.nc,0.00024345310109918024,1.0680696415548872,0.6963873367677242,1.2861713801114647,2.598804,3.318129,0.82778525,0.0157851,5.9430304,43.47971,-344.54434,102.56387,21.0,0.7508221,0.01845403,42.79528,7.193718,243.8239,-369.6359,50,given_smb,false,routing,routing,th,pism_g450m_frontretreat_calfin_1972_2019.nc,pseudo_plastic,2.608046,3.309718
90,447891.48924096953,seasonal_calving_id_4_1975_2025.nc,9.410118083557079e-05,MAR3.9_CNRM-CM6_ssp585_ocean_1960-2100_v4.nc,DMI-HIRHAM5_ERA_1975_2021_EPSG3413_4500M_MM.nc,0.0003003194990559571,1.3727835143733065,0.3222430645622825,2.0441660477310406,2.1096354,3.3023565,0.66398126,0.020663546,10.219948,40.285183,-188.4351,154.4834,30.0,0.7508221,0.01845403,42.79528,7.193718,243.8239,-369.6359,50,given_smb,false,routing,routing,th,pism_g450m_frontretreat_calfin_1972_2019.nc,pseudo_plastic,2.608046,3.309718
91,485454.9926446201,seasonal_calving_id_4_1975_2025.nc,8.80161209552617e-05,MAR3.9_HadGEM2-ES_rcp85_ocean_1960-2100_v4.nc,MARv3.14-monthly-ERA5-1975_2023.nc,0.00027107650286543243,1.6881719177452799,0.5967511882961223,1.2968114063919967,2.1787815,3.290314,0.70436364,0.013729262,6.2346554,44.13359,-533.4333,284.7482,13.0,0.7508221,0.01845403,42.79528,7.193718,243.8239,-369.6359,50,given_smb,false,routing,routing,th,pism_g450m_frontretreat_calfin_1972_2019.nc,pseudo_plastic,2.608046,3.309718
92,613348.3546889275,seasonal_calving_id_4_1975_2025.nc,9.213136318493989e-05,MAR3.9_CSIRO-Mk3.6_rcp85_ocean_1960-2100_v4.nc,MARv3.14-monthly-ERA5-1975_2023.nc,0.00027355957187288573,1.2861213297877327,0.6903536043555987,2.0788352008045083,2.7004302,3.380296,0.6428505,0.017081108,6.551376,43.07554,-472.3258,155.60461,41.0,0.7508221,0.01845403,42.79528,7.193718,243.8239,-369.6359,50,given_smb,false,routing,routing,th,pism_g450m_frontretreat_calfin_1972_2019.nc,pseudo_plastic,2.608046,3.309718
93,358194.2700248646,seasonal_calving_id_0_1975_2025.nc,0.00010240711914269514,MAR3.9_CSIRO-Mk3.6_rcp85_ocean_1960-2100_v4.nc,MARv3.14-monthly-ERA5-1975_2023.nc,0.00032280986661262055,1.6820020342369524,0.6288584456121528,2.6515846564194225,2.89941,3.3167546,0.8866597,0.015985334,7.9027295,44.164482,-299.3123,22.078533,49.0,0.7508221,0.01845403,42.79528,7.193718,243.8239,-369.6359,50,given_smb,false,routing,routing,th,pism_g450m_frontretreat_calfin_1972_2019.nc,pseudo_plastic,2.608046,3.309718
94,437858.5742443396,seasonal_calving_id_-1_1975_2025.nc,9.753214744997978e-05,MAR3.9_MIROC-ESM-CHEM_rcp85_ocean_1960-2100_v4.nc,DMI-HIRHAM5_ERA_1975_2021_EPSG3413_4500M_MM.nc,0.0002750115674154117,1.269807632007845,0.3475396302115909,2.554070093955521,2.3378656,3.309548,0.79949486,0.018752767,7.8765483,42.302406,-387.54852,357.83932,10.0,0.7508221,0.01845403,42.79528,7.193718,243.8239,-369.6359,50,given_smb,false,routing,routing,th,pism_g450m_frontretreat_calfin_1972_2019.nc,pseudo_plastic,2.608046,3.309718
95,563967.9216319707,seasonal_calving_id_2_1975_2025.nc,0.00012450244449975644,MAR3.9_NorESM1-M_rcp85_ocean_1960-2100_v4.nc,DMI-HIRHAM5_ERA_1975_2021_EPSG3413_4500M_MM.nc,0.0003401172026776636,1.4467148119047626,0.420834274074104,1.4482470032703665,2.4695072,3.3442838,0.63557106,0.022420242,6.8355775,40.7688,-465.49908,327.53305,39.0,0.7508221,0.01845403,42.79528,7.193718,243.8239,-369.6359,50,given_smb,false,routing,routing,th,pism_g450m_frontretreat_calfin_1972_2019.nc,pseudo_plastic,2.608046,3.309718
96,481751.9107155106,seasonal_calving_id_0_1975_2025.nc,0.00013644259513216275,MAR3.9_CSIRO-Mk3.6_rcp85_ocean_1960-2100_v4.nc,MARv3.14-monthly-ERA5-1975_2023.nc,0.0002644062074489322,1.4118013673889525,0.3532858882407407,1.8522701731024873,2.6927931,3.2680008,0.6977763,0.020953815,8.569133,44.363514,-291.00916,343.55786,41.0,0.7508221,0.01845403,42.79528,7.193718,243.8239,-369.6359,50,given_smb,false,routing,routing,th,pism_g450m_frontretreat_calfin_1972_2019.nc,pseudo_plastic,2.608046,3.309718
97,507727.19053736154,seasonal_calving_id_5_1975_2025.nc,0.00012887316652728328,MAR3.9_UKESM1-CM6_ssp585_ocean_1960-2100_v4.nc,MARv3.14-monthly-ERA5-1975_2023.nc,0.0002857906409080907,1.6501868806006357,0.47515281866290227,2.5422988991978386,2.9521277,3.3197114,0.68659,0.01879895,7.0176797,44.38004,-397.84424,300.47507,41.0,0.7508221,0.01845403,42.79528,7.193718,243.8239,-369.6359,50,given_smb,false,routing,routing,th,pism_g450m_frontretreat_calfin_1972_2019.nc,pseudo_plastic,2.608046,3.309718
98,361073.9457790558,seasonal_calving_id_0_1975_2025.nc,0.00011158200012243183,MAR3.9_UKESM1-CM6_ssp585_ocean_1960-2100_v4.nc,MARv3.14-monthly-ERA5-1975_2023.nc,0.0002676494415930675,1.0525516927653187,0.43668748403441426,2.2267609531055137,3.0536473,3.2914538,0.7416971,0.019678747,9.799431,44.116154,-245.01868,206.06732,8.0,0.7508221,0.01845403,42.79528,7.193718,243.8239,-369.6359,50,given_smb,false,routing,routing,th,pism_g450m_frontretreat_calfin_1972_2019.nc,pseudo_plastic,2.608046,3.309718
99,411634.06600842735,seasonal_calving_id_-1_1975_2025.nc,9.676401491275183e-05,MAR3.9_CNRM-CM6_ssp126_ocean_1960-2100_v4.nc,MARv3.14-monthly-ERA5-1975_2023.nc,0.00024656131697251173,1.615396435395912,0.6627850969316866,1.2101103321580169,2.0496693,3.3214447,0.78415823,0.022099687,9.420207,40.846275,-239.70036,434.30637,38.0,0.7508221,0.01845403,42.79528,7.193718,243.8239,-369.6359,50,given_smb,false,routing,routing,th,pism_g450m_frontretreat_calfin_1972_2019.nc,pseudo_plastic,2.608046,3.309718
