id,calving.vonmises_calving.sigma_max,ocean.th.gamma_T,ocean_file,calving_file,climate_file,frontal_melt.routing.parameter_a,frontal_melt.routing.parameter_b,frontal_melt.routing.power_alpha,frontal_melt.routing.power_beta,stress_balance.sia.enhancement_factor,stress_balance.ssa.Glen_exponent,basal_resistance.pseudo_plastic.q,basal_yield_stress.mohr_coulomb.till_effective_fraction_overburden,basal_yield_stress.mohr_coulomb.topg_to_phi.phi_min,basal_yield_stress.mohr_coulomb.topg_to_phi.phi_max,basal_yield_stress.mohr_coulomb.topg_to_phi.topg_min,basal_yield_stress.mohr_coulomb.topg_to_phi.topg_max,calving.thickness_calving.threshold,climate,fractures,frontal_melt,hydrology,ocean.models,prescribed_retreat_file,sliding_law
0,641710.4397009418,8.965164934623324e-05,MAR3.9_MIROC-ESM-CHEM_rcp85_ocean_1960-2100_v4.nc,0.0,DMI-HIRHAM5_ERA_1975_2021_EPSG3413_4500M_MM.nc,0.0003146675157781597,1.1202975832968058,0.30989386814462755,2.6690822350389594,3.083919,3.2983243,0.6310541,0.017869765,6.8500514,43.539642,-462.34305,316.08768,50,given_smb,false,routing,routing,th,pism_g450m_frontretreat_calfin_1972_2019.nc,pseudo_plastic
1,369821.7560643368,8.525001240987276e-05,MAR3.9_NorESM1-M_rcp85_ocean_1960-2100_v4.nc,5.0,DMI-HIRHAM5_ERA_1975_2021_EPSG3413_4500M_MM.nc,0.00032527423713951437,1.4274355339764166,0.5186007422510388,1.932338861137905,2.909241,3.3447852,0.77389485,0.020150062,8.769477,44.109375,-324.22748,217.68463,50,given_smb,false,routing,routing,th,pism_g450m_frontretreat_calfin_1972_2019.nc,pseudo_plastic
2,547787.004857672,0.00011834863657569957,MAR3.9_IPSL-CM5-MR_rcp85_ocean_1960-2100_v4.nc,1.0,DMI-HIRHAM5_ERA_1975_2021_EPSG3413_4500M_MM.nc,0.00033172342148156934,1.6794514834795184,0.5815430640522796,2.445253025431503,2.8213048,3.3016393,0.62745404,0.023626504,6.4007854,41.92194,-356.86087,283.15347,50,given_smb,false,routing,routing,th,pism_g450m_frontretreat_calfin_1972_2019.nc,pseudo_plastic
3,613894.9962797477,0.00010626731747324796,MAR3.9_ACCESS1-3_rcp85_ocean_1960-2100_v4.nc,2.0,DMI-HIRHAM5_ERA_1975_2021_EPSG3413_4500M_MM.nc,0.0002537154974027313,1.0799273690094695,0.30465354820289736,1.3526389958101281,2.2658198,3.362416,0.68424654,0.016950537,7.0467086,41.262005,-459.75894,216.43613,50,given_smb,false,routing,routing,th,pism_g450m_frontretreat_calfin_1972_2019.nc,pseudo_plastic
4,374230.0966751762,9.735378634023044e-05,MAR3.9_CNRM-CM6_ssp585_ocean_1960-2100_v4.nc,4.0,MARv3.14-monthly-ERA5-1975_2023.nc,0.00032200579136279733,1.0875400452046884,0.47752320879474025,2.7870536765262512,2.5321648,3.2776923,0.6044444,0.019477054,6.148174,42.146954,-383.67093,268.43546,50,given_smb,false,routing,routing,th,pism_g450m_frontretreat_calfin_1972_2019.nc,pseudo_plastic
5,387216.2228621409,8.898983001220365e-05,MAR3.9_HadGEM2-ES_rcp85_ocean_1960-2100_v4.nc,3.0,MARv3.14-monthly-ERA5-1975_2023.nc,0.00024378215375848455,1.641825661028912,0.5013074203368618,1.6929024637630512,3.8053303,3.3706264,0.8618783,0.022739192,8.856103,44.344685,-235.31024,192.8338,50,given_smb,false,routing,routing,th,pism_g450m_frontretreat_calfin_1972_2019.nc,pseudo_plastic
6,366924.22798710724,9.171487178284815e-05,MAR3.9_CSIRO-Mk3.6_rcp85_ocean_1960-2100_v4.nc,5.0,DMI-HIRHAM5_ERA_1975_2021_EPSG3413_4500M_MM.nc,0.00027941437459854117,1.670156309331345,0.6400738792368461,2.226486562083384,2.819868,3.3626797,0.7864086,0.015326293,13.335516,42.14587,-356.94943,89.75196,50,given_smb,false,routing,routing,th,pism_g450m_frontretreat_calfin_1972_2019.nc,pseudo_plastic
7,615407.3968525229,0.00014436965372898825,MAR3.9_MIROC-ESM-CHEM_rcp26_ocean_1960-2100_v4.nc,0.0,MARv3.14-monthly-ERA5-1975_2023.nc,0.00035870391255255147,1.4834752368900748,0.4988835544644114,2.432017817334752,2.451977,3.3370857,0.8104022,0.016281312,11.4275055,40.99021,-290.80417,166.9041,50,given_smb,false,routing,routing,th,pism_g450m_frontretreat_calfin_1972_2019.nc,pseudo_plastic
8,467336.8314709667,0.00010713592427727097,MAR3.9_CNRM-CM6_ssp126_ocean_1960-2100_v4.nc,2.0,DMI-HIRHAM5_ERA_1975_2021_EPSG3413_4500M_MM.nc,0.00029858227103629273,1.4828104127651156,0.6954828850184427,2.198756901088962,2.3711147,3.2540314,0.5875613,0.019177532,9.114066,41.823143,-406.56735,392.32306,50,given_smb,false,routing,routing,th,pism_g450m_frontretreat_calfin_1972_2019.nc,pseudo_plastic
9,408736.45426670887,0.00012322002090671272,MAR3.9_CNRM-ESM2_ssp585_ocean_1960-2100_v4.nc,6.0,DMI-HIRHAM5_ERA_1975_2021_EPSG3413_4500M_MM.nc,0.0002740894356309967,1.2523795406292666,0.31674775998508603,1.752980297640946,2.2118855,3.349488,0.8906072,0.01539047,6.245179,41.263824,-438.07867,147.41103,50,given_smb,false,routing,routing,th,pism_g450m_frontretreat_calfin_1972_2019.nc,pseudo_plastic
10,556981.156467542,0.0001434141447215283,MAR3.9_HadGEM2-ES_rcp85_ocean_1960-2100_v4.nc,6.0,DMI-HIRHAM5_ERA_1975_2021_EPSG3413_4500M_MM.nc,0.00035408846826778345,1.6246784543148047,0.38519324924590786,1.270676887684504,2.1722069,3.2980304,0.58754855,0.019830022,10.677963,41.445663,-302.49463,130.69159,50,given_smb,false,routing,routing,th,pism_g450m_frontretreat_calfin_1972_2019.nc,pseudo_plastic
11,500482.9567365687,0.00013967170126476372,MAR3.9_IPSL-CM5-MR_rcp85_ocean_1960-2100_v4.nc,3.0,DMI-HIRHAM5_ERA_1975_2021_EPSG3413_4500M_MM.nc,0.00029575647066852173,1.2690301759927645,0.36805064396205617,1.7212027192273072,2.7903535,3.355468,0.860069,0.016699241,6.422236,42.308197,-434.32095,206.44582,50,given_smb,false,routing,routing,th,pism_g450m_frontretreat_calfin_1972_2019.nc,pseudo_plastic
12,544387.279480258,0.00013049004283718124,MAR3.9_NorESM1-M_rcp85_ocean_1960-2100_v4.nc,4.0,DMI-HIRHAM5_ERA_1975_2021_EPSG3413_4500M_MM.nc,0.00035730683580095535,1.1355798417013645,0.3610802175292136,2.5502446174874196,2.340009,3.3308895,0.6294586,0.016937135,6.766326,41.32081,-512.40765,205.42633,50,given_smb,false,routing,routing,th,pism_g450m_frontretreat_calfin_1972_2019.nc,pseudo_plastic
13,443803.37232440675,0.00010221511149522823,MAR3.9_CNRM-ESM2_ssp585_ocean_1960-2100_v4.nc,6.0,DMI-HIRHAM5_ERA_1975_2021_EPSG3413_4500M_MM.nc,0.0002688063967322742,1.006739583131132,0.44102554778362746,1.2617120126775137,2.0404437,3.3180223,0.82323676,0.016796209,9.132213,42.30016,-360.3495,230.65121,50,given_smb,false,routing,routing,th,pism_g450m_frontretreat_calfin_1972_2019.nc,pseudo_plastic
14,633578.5610050207,0.00014104392370266566,MAR3.9_CNRM-CM6_ssp126_ocean_1960-2100_v4.nc,3.0,MARv3.14-monthly-ERA5-1975_2023.nc,0.00032811431902004276,1.1930579618006076,0.6393222117207366,1.4531339890615478,2.8531554,3.3465588,0.8411279,0.01774574,8.384033,44.705498,-347.79965,343.99323,50,given_smb,false,routing,routing,th,pism_g450m_frontretreat_calfin_1972_2019.nc,pseudo_plastic
15,455996.219037451,0.00010194205446757382,MAR3.9_NorESM1-M_rcp85_ocean_1960-2100_v4.nc,1.0,MARv3.14-monthly-ERA5-1975_2023.nc,0.0003589940242873285,1.1764289683328184,0.5419100564957187,1.5656275479977497,2.936052,3.251227,0.85445136,0.018518446,7.278446,44.638336,-314.38983,191.4934,50,given_smb,false,routing,routing,th,pism_g450m_frontretreat_calfin_1972_2019.nc,pseudo_plastic
16,508870.9118302725,0.00011127526939073386,MAR3.9_ACCESS1-3_rcp85_ocean_1960-2100_v4.nc,1.0,DMI-HIRHAM5_ERA_1975_2021_EPSG3413_4500M_MM.nc,0.0003491342088573036,1.5460608701569802,0.6913987787111204,2.371076234046339,2.738633,3.2549546,0.7698834,0.01982761,5.862415,42.09492,-309.05936,207.21121,50,given_smb,false,routing,routing,th,pism_g450m_frontretreat_calfin_1972_2019.nc,pseudo_plastic
17,466038.7333805373,0.00014964506809935667,MAR3.9_MIROC-ESM-CHEM_rcp26_ocean_1960-2100_v4.nc,4.0,DMI-HIRHAM5_ERA_1975_2021_EPSG3413_4500M_MM.nc,0.00029382990223040704,1.608174447313805,0.45608940563164496,1.6499853819484138,3.1929922,3.3581688,0.7791428,0.01907206,6.5725956,44.41553,-414.65225,215.25995,50,given_smb,false,routing,routing,th,pism_g450m_frontretreat_calfin_1972_2019.nc,pseudo_plastic
18,433468.210811477,0.00011945566799509784,MAR3.9_CNRM-CM6_ssp126_ocean_1960-2100_v4.nc,5.0,DMI-HIRHAM5_ERA_1975_2021_EPSG3413_4500M_MM.nc,0.0002900441510892588,1.5642288785215737,0.6687750505488947,2.460111828542578,2.7106209,3.362566,0.7252481,0.016628506,9.12893,44.64311,-298.70145,118.41597,50,given_smb,false,routing,routing,th,pism_g450m_frontretreat_calfin_1972_2019.nc,pseudo_plastic
19,490939.4211916594,0.00011512097051646257,MAR3.9_CNRM-CM6_ssp585_ocean_1960-2100_v4.nc,6.0,MARv3.14-monthly-ERA5-1975_2023.nc,0.00025814680367668136,1.6227528437126,0.34179183128872526,1.4860861882988652,1.6897699,3.3436556,0.74131864,0.015524639,9.812316,43.945744,-359.7335,334.02866,50,given_smb,false,routing,routing,th,pism_g450m_frontretreat_calfin_1972_2019.nc,pseudo_plastic
20,491663.4668796211,0.00014265741655982383,MAR3.9_ACCESS1-3_rcp85_ocean_1960-2100_v4.nc,4.0,MARv3.14-monthly-ERA5-1975_2023.nc,0.0002515376811338613,1.0923357851600701,0.5452179847002421,2.0073488532737533,2.5858328,3.324269,0.7262205,0.015658079,6.3301077,41.611378,-429.28302,150.32161,50,given_smb,false,routing,routing,th,pism_g450m_frontretreat_calfin_1972_2019.nc,pseudo_plastic
21,479726.9047558007,0.00013542783599889354,MAR3.9_CNRM-CM6_ssp585_ocean_1960-2100_v4.nc,2.0,MARv3.14-monthly-ERA5-1975_2023.nc,0.0003083925886073907,1.2018499867291568,0.47383837336013696,1.8453312795946735,2.5494936,3.2835886,0.6491536,0.017079335,9.294951,43.450123,-264.31906,152.08614,50,given_smb,false,routing,routing,th,pism_g450m_frontretreat_calfin_1972_2019.nc,pseudo_plastic
22,442430.01382772997,0.00014776449427414547,MAR3.9_MIROC-ESM-CHEM_rcp85_ocean_1960-2100_v4.nc,5.0,DMI-HIRHAM5_ERA_1975_2021_EPSG3413_4500M_MM.nc,0.00030199299897383817,1.5396108638315062,0.40255599923680935,2.6896677335852486,2.873734,3.3192685,0.6903402,0.014124486,8.28176,43.667217,-257.57205,118.70413,50,given_smb,false,routing,routing,th,pism_g450m_frontretreat_calfin_1972_2019.nc,pseudo_plastic
23,447221.9923383032,0.00010730881273000356,MAR3.9_CNRM-CM6_ssp126_ocean_1960-2100_v4.nc,0.0,MARv3.14-monthly-ERA5-1975_2023.nc,0.0003381150979596784,1.4706725032985122,0.5384610951976696,2.254105032238366,2.3672059,3.33227,0.81363237,0.011792115,7.0881014,43.720604,-535.98425,96.85956,50,given_smb,false,routing,routing,th,pism_g450m_frontretreat_calfin_1972_2019.nc,pseudo_plastic
24,377006.4225984855,7.703064801005286e-05,MAR3.9_CSIRO-Mk3.6_rcp85_ocean_1960-2100_v4.nc,0.0,MARv3.14-monthly-ERA5-1975_2023.nc,0.0003230288138655415,1.6563433264880814,0.652348726855132,2.162988471763806,2.2958531,3.292341,0.81937796,0.018805258,8.011284,44.34887,-301.97427,230.692,50,given_smb,false,routing,routing,th,pism_g450m_frontretreat_calfin_1972_2019.nc,pseudo_plastic
25,540629.157697773,0.00014677599811254637,MAR3.9_IPSL-CM5-MR_rcp85_ocean_1960-2100_v4.nc,5.0,DMI-HIRHAM5_ERA_1975_2021_EPSG3413_4500M_MM.nc,0.00031064058383594735,1.3387224961939728,0.677605438588698,1.112727468017894,2.7754414,3.2863688,0.78889245,0.020934947,7.016743,42.732418,-191.32379,109.11248,50,given_smb,false,routing,routing,th,pism_g450m_frontretreat_calfin_1972_2019.nc,pseudo_plastic
26,390582.488127996,8.295074618106939e-05,MAR3.9_MIROC-ESM-CHEM_rcp26_ocean_1960-2100_v4.nc,1.0,DMI-HIRHAM5_ERA_1975_2021_EPSG3413_4500M_MM.nc,0.00030258676388805316,1.1698899288977411,0.3212950772330604,1.7388651086053692,2.5416076,3.32081,0.77565235,0.025588285,8.490209,40.40796,-324.95334,663.2921,50,given_smb,false,routing,routing,th,pism_g450m_frontretreat_calfin_1972_2019.nc,pseudo_plastic
27,576331.4626070156,9.350139279585462e-05,MAR3.9_UKESM1-CM6_ssp585_ocean_1960-2100_v4.nc,5.0,MARv3.14-monthly-ERA5-1975_2023.nc,0.0002463079806036942,1.0139169234486243,0.51256604553303,2.64744669657612,2.766863,3.2354789,0.65910137,0.020128489,6.000953,43.800415,-357.03568,209.57341,50,given_smb,false,routing,routing,th,pism_g450m_frontretreat_calfin_1972_2019.nc,pseudo_plastic
28,398819.964450854,0.00013817681805789698,MAR3.9_CNRM-CM6_ssp585_ocean_1960-2100_v4.nc,5.0,DMI-HIRHAM5_ERA_1975_2021_EPSG3413_4500M_MM.nc,0.0002666831102847665,1.222027147690693,0.6805458076084757,1.8904873616695483,2.4749336,3.361477,0.8322077,0.016348636,8.487475,42.779873,-261.3948,163.14946,50,given_smb,false,routing,routing,th,pism_g450m_frontretreat_calfin_1972_2019.nc,pseudo_plastic
29,423019.066013925,9.137145569196252e-05,MAR3.9_CNRM-ESM2_ssp585_ocean_1960-2100_v4.nc,3.0,MARv3.14-monthly-ERA5-1975_2023.nc,0.00028667418947008605,1.4446490670727872,0.40944157304886114,1.9614596779227202,3.0785077,3.2617154,0.8064189,0.017944716,6.2030354,42.34118,-326.78394,203.34833,50,given_smb,false,routing,routing,th,pism_g450m_frontretreat_calfin_1972_2019.nc,pseudo_plastic
30,549795.1309954643,8.755342118978979e-05,MAR3.9_NorESM1-M_rcp85_ocean_1960-2100_v4.nc,5.0,DMI-HIRHAM5_ERA_1975_2021_EPSG3413_4500M_MM.nc,0.0003495609947046058,1.0541465715437977,0.6053504377842767,2.067824711977464,2.0062058,3.308928,0.6077511,0.017372912,8.342861,44.722145,-512.32214,436.46863,50,given_smb,false,routing,routing,th,pism_g450m_frontretreat_calfin_1972_2019.nc,pseudo_plastic
31,570583.3951613164,0.00011749436349428,MAR3.9_UKESM1-CM6_ssp585_ocean_1960-2100_v4.nc,2.0,MARv3.14-monthly-ERA5-1975_2023.nc,0.0002770769932182451,1.5165724867253554,0.6327039882887122,2.354579828246469,2.8459926,3.3355544,0.72929025,0.017809043,6.2316694,43.851635,-424.27542,124.50839,50,given_smb,false,routing,routing,th,pism_g450m_frontretreat_calfin_1972_2019.nc,pseudo_plastic
32,425858.37630571856,9.868037379294795e-05,MAR3.9_IPSL-CM5-MR_rcp85_ocean_1960-2100_v4.nc,3.0,MARv3.14-monthly-ERA5-1975_2023.nc,0.00025283769254056873,1.6987467734440709,0.5607987946734238,2.3333221275313427,2.4937382,3.3035855,0.74595004,0.02162595,7.583213,41.241516,-278.8537,358.76608,50,given_smb,false,routing,routing,th,pism_g450m_frontretreat_calfin_1972_2019.nc,pseudo_plastic
33,580985.0471650464,0.00013703463038994306,MAR3.9_CSIRO-Mk3.6_rcp85_ocean_1960-2100_v4.nc,1.0,DMI-HIRHAM5_ERA_1975_2021_EPSG3413_4500M_MM.nc,0.00034212128973576953,1.1598586580350099,0.6655256312755937,2.1039342612861924,2.5138674,3.3006084,0.60264045,0.016272759,6.425633,44.836826,-470.8764,217.90477,50,given_smb,false,routing,routing,th,pism_g450m_frontretreat_calfin_1972_2019.nc,pseudo_plastic
34,405490.1108464558,0.00012863126640513616,MAR3.9_MIROC-ESM-CHEM_rcp26_ocean_1960-2100_v4.nc,1.0,DMI-HIRHAM5_ERA_1975_2021_EPSG3413_4500M_MM.nc,0.0003298514811673266,1.3525578751527614,0.4691494850409595,2.642595018724281,2.7187352,3.3694625,0.7968892,0.015388461,9.481947,44.5224,-312.2834,184.9205,50,given_smb,false,routing,routing,th,pism_g450m_frontretreat_calfin_1972_2019.nc,pseudo_plastic
35,631940.5361927743,0.00010566085769185785,MAR3.9_NorESM1-M_rcp85_ocean_1960-2100_v4.nc,3.0,MARv3.14-monthly-ERA5-1975_2023.nc,0.00032412177478116823,1.2747107406097935,0.5976658793401164,2.2687569494575426,2.537932,3.3180802,0.83062613,0.021995014,5.8503575,41.685608,-302.39566,185.14203,50,given_smb,false,routing,routing,th,pism_g450m_frontretreat_calfin_1972_2019.nc,pseudo_plastic
36,503287.54887879424,9.487878687626916e-05,MAR3.9_HadGEM2-ES_rcp85_ocean_1960-2100_v4.nc,2.0,DMI-HIRHAM5_ERA_1975_2021_EPSG3413_4500M_MM.nc,0.00033591200576709633,1.5059708130391385,0.3587905832552939,1.9775271555851277,2.9340165,3.255689,0.7368855,0.021623144,6.651106,40.95513,-284.68863,188.13857,50,given_smb,false,routing,routing,th,pism_g450m_frontretreat_calfin_1972_2019.nc,pseudo_plastic
37,477956.3215052715,9.563085092938234e-05,MAR3.9_UKESM1-CM6_ssp585_ocean_1960-2100_v4.nc,2.0,DMI-HIRHAM5_ERA_1975_2021_EPSG3413_4500M_MM.nc,0.00028720488306442583,1.2479982613743474,0.5670877988184068,1.6978126921136565,2.9027696,3.2582195,0.7087527,0.027607482,5.3434997,40.975464,-296.75766,500.17795,50,given_smb,false,routing,routing,th,pism_g450m_frontretreat_calfin_1972_2019.nc,pseudo_plastic
38,486026.4401495947,0.00010974903712906341,MAR3.9_ACCESS1-3_rcp85_ocean_1960-2100_v4.nc,3.0,MARv3.14-monthly-ERA5-1975_2023.nc,0.00031818643502419004,1.399231078433762,0.5298027072077226,1.2458533856840095,2.8034687,3.3399067,0.733886,0.021425324,6.0937233,41.49489,-473.41464,199.97705,50,given_smb,false,routing,routing,th,pism_g450m_frontretreat_calfin_1972_2019.nc,pseudo_plastic
39,475503.0795671011,0.00013260948795301356,MAR3.9_CNRM-CM6_ssp126_ocean_1960-2100_v4.nc,4.0,DMI-HIRHAM5_ERA_1975_2021_EPSG3413_4500M_MM.nc,0.0003529141546778239,1.3900063392994584,0.4461468859740075,2.2888052323222166,1.5703976,3.2905436,0.7276823,0.014825542,7.6243916,41.313667,-371.66528,101.91599,50,given_smb,false,routing,routing,th,pism_g450m_frontretreat_calfin_1972_2019.nc,pseudo_plastic
40,394916.2028203035,0.00012408008232811047,MAR3.9_MIROC-ESM-CHEM_rcp26_ocean_1960-2100_v4.nc,6.0,DMI-HIRHAM5_ERA_1975_2021_EPSG3413_4500M_MM.nc,0.0003011428745348235,1.4133725415298992,0.5740648229759233,2.1432082381892767,2.9869542,3.2946625,0.8665473,0.021169333,7.4783893,43.446133,-192.82965,349.43588,50,given_smb,false,routing,routing,th,pism_g450m_frontretreat_calfin_1972_2019.nc,pseudo_plastic
41,358703.70551208773,7.515582770308068e-05,MAR3.9_MIROC-ESM-CHEM_rcp26_ocean_1960-2100_v4.nc,3.0,MARv3.14-monthly-ERA5-1975_2023.nc,0.0003453962080131111,1.4343519437941958,0.5769772501684955,1.4691765989909364,2.6129131,3.278438,0.7018558,0.02231768,11.339633,40.94815,-380.73114,640.07263,50,given_smb,false,routing,routing,th,pism_g450m_frontretreat_calfin_1972_2019.nc,pseudo_plastic
42,418982.13424543076,0.000130879775571113,MAR3.9_MIROC-ESM-CHEM_rcp85_ocean_1960-2100_v4.nc,1.0,DMI-HIRHAM5_ERA_1975_2021_EPSG3413_4500M_MM.nc,0.00033303674868969405,1.1458775994734989,0.34516393250863275,1.9994647455040564,2.6963987,3.2898433,0.6834869,0.027085366,6.7734423,42.989777,-471.95605,748.9579,50,given_smb,false,routing,routing,th,pism_g450m_frontretreat_calfin_1972_2019.nc,pseudo_plastic
43,620328.9288674477,0.0001085726766516461,MAR3.9_UKESM1-CM6_ssp585_ocean_1960-2100_v4.nc,1.0,MARv3.14-monthly-ERA5-1975_2023.nc,0.0002706749345292486,1.2887175173047902,0.5548870577977321,1.7771100405655833,2.7309408,3.279404,0.6763645,0.02030434,8.291496,44.55492,-273.61578,345.6927,50,given_smb,false,routing,routing,th,pism_g450m_frontretreat_calfin_1972_2019.nc,pseudo_plastic
44,414034.85852733685,0.0001476982195171499,MAR3.9_MIROC-ESM-CHEM_rcp26_ocean_1960-2100_v4.nc,1.0,DMI-HIRHAM5_ERA_1975_2021_EPSG3413_4500M_MM.nc,0.000249527794796898,1.5373220357704869,0.43734041840297944,2.599194827655847,2.6029513,3.3336542,0.7632943,0.020130998,8.767681,42.20271,-395.34918,570.1226,50,given_smb,false,routing,routing,th,pism_g450m_frontretreat_calfin_1972_2019.nc,pseudo_plastic
45,371692.68543194,0.00013457432790330525,MAR3.9_CSIRO-Mk3.6_rcp85_ocean_1960-2100_v4.nc,5.0,DMI-HIRHAM5_ERA_1975_2021_EPSG3413_4500M_MM.nc,0.00025791830221666976,1.2656663188477641,0.35576289950437784,1.4950560101850285,2.979686,3.3196826,0.75912654,0.020454723,9.87794,44.79316,-423.9653,273.74557,50,given_smb,false,routing,routing,th,pism_g450m_frontretreat_calfin_1972_2019.nc,pseudo_plastic
46,458362.588266053,0.0001403322379839881,MAR3.9_UKESM1-CM6_ssp585_ocean_1960-2100_v4.nc,5.0,DMI-HIRHAM5_ERA_1975_2021_EPSG3413_4500M_MM.nc,0.00027816581216891017,1.2353839637069113,0.619641752851039,2.7073998412721254,2.663509,3.3045788,0.5914676,0.016829547,7.943219,44.648903,-462.47687,256.16174,50,given_smb,false,routing,routing,th,pism_g450m_frontretreat_calfin_1972_2019.nc,pseudo_plastic
47,523959.6591544292,0.00012239495046351178,MAR3.9_HadGEM2-ES_rcp85_ocean_1960-2100_v4.nc,4.0,MARv3.14-monthly-ERA5-1975_2023.nc,0.0002827096815308429,1.3188834080383174,0.30005261866518546,2.301237009602345,2.9947848,3.3210518,0.78105223,0.019721782,6.0772557,42.205276,-301.05487,206.82748,50,given_smb,false,routing,routing,th,pism_g450m_frontretreat_calfin_1972_2019.nc,pseudo_plastic
48,609640.237297904,9.013028947183678e-05,MAR3.9_IPSL-CM5-MR_rcp85_ocean_1960-2100_v4.nc,0.0,DMI-HIRHAM5_ERA_1975_2021_EPSG3413_4500M_MM.nc,0.000343509863872857,1.3977335528026784,0.45118921494652414,2.4019987145357,2.8535955,3.29605,0.5977204,0.020244066,10.128688,42.49164,-406.78442,347.2326,50,given_smb,false,routing,routing,th,pism_g450m_frontretreat_calfin_1972_2019.nc,pseudo_plastic
49,359449.840804821,0.00013333612724667501,MAR3.9_UKESM1-CM6_ssp585_ocean_1960-2100_v4.nc,5.0,MARv3.14-monthly-ERA5-1975_2023.nc,0.00024782787527374324,1.4515750675115382,0.33252197894196395,1.9498984439833706,2.218385,3.2959242,0.694577,0.019053437,5.44966,40.431057,-408.52954,276.8642,50,given_smb,false,routing,routing,th,pism_g450m_frontretreat_calfin_1972_2019.nc,pseudo_plastic
50,584672.4872538022,8.41614687915484e-05,MAR3.9_IPSL-CM5-MR_rcp85_ocean_1960-2100_v4.nc,0.0,DMI-HIRHAM5_ERA_1975_2021_EPSG3413_4500M_MM.nc,0.0003457422093287155,1.0262103390167963,0.6626821350069031,1.1415420007194612,2.4469907,3.3387728,0.6429824,0.01836908,6.093107,41.719147,-668.7002,236.96289,50,given_smb,false,routing,routing,th,pism_g450m_frontretreat_calfin_1972_2019.nc,pseudo_plastic
51,383772.3642287266,0.0001142967503291288,MAR3.9_CNRM-CM6_ssp126_ocean_1960-2100_v4.nc,0.0,MARv3.14-monthly-ERA5-1975_2023.nc,0.0002942375620349037,1.305942502195772,0.4541191673349301,1.7965417532300778,2.369723,3.3346932,0.7197953,0.017833192,6.583942,41.115547,-461.37308,369.78262,50,given_smb,false,routing,routing,th,pism_g450m_frontretreat_calfin_1972_2019.nc,pseudo_plastic
52,559449.9287011644,9.776349414285754e-05,MAR3.9_UKESM1-CM6_ssp585_ocean_1960-2100_v4.nc,0.0,DMI-HIRHAM5_ERA_1975_2021_EPSG3413_4500M_MM.nc,0.00032698106837732367,1.6309642469014103,0.6255970729573773,1.3575998667283709,3.6004117,3.3402748,0.772605,0.01659834,10.261179,44.687893,-427.58026,325.88666,50,given_smb,false,routing,routing,th,pism_g450m_frontretreat_calfin_1972_2019.nc,pseudo_plastic
53,648179.8097774566,0.00014512352642356643,MAR3.9_ACCESS1-3_rcp85_ocean_1960-2100_v4.nc,3.0,MARv3.14-monthly-ERA5-1975_2023.nc,0.00025507137229860514,1.2446120179738716,0.6753410461906992,2.4151097736499914,2.7394605,3.3224533,0.6917734,0.020058798,7.058552,42.275352,-311.56232,223.68723,50,given_smb,false,routing,routing,th,pism_g450m_frontretreat_calfin_1972_2019.nc,pseudo_plastic
54,352283.12711616914,7.882726129554756e-05,MAR3.9_CNRM-ESM2_ssp585_ocean_1960-2100_v4.nc,5.0,MARv3.14-monthly-ERA5-1975_2023.nc,0.00026505525476778883,1.5308473324415346,0.3750087503222098,1.5967595049881327,2.806921,3.3057694,0.61336774,0.026476344,8.217966,42.646797,-301.55716,428.21353,50,given_smb,false,routing,routing,th,pism_g450m_frontretreat_calfin_1972_2019.nc,pseudo_plastic
55,536294.517355752,0.00014575121878984042,MAR3.9_ACCESS1-3_rcp85_ocean_1960-2100_v4.nc,2.0,DMI-HIRHAM5_ERA_1975_2021_EPSG3413_4500M_MM.nc,0.00028354649601565604,1.1873336504227066,0.43148160355493465,2.080318867142096,2.3602962,3.3201396,0.71818614,0.016527386,6.9584064,42.79539,-427.21036,315.5984,50,given_smb,false,routing,routing,th,pism_g450m_frontretreat_calfin_1972_2019.nc,pseudo_plastic
56,603904.055716972,8.023473087080805e-05,MAR3.9_ACCESS1-3_rcp85_ocean_1960-2100_v4.nc,6.0,DMI-HIRHAM5_ERA_1975_2021_EPSG3413_4500M_MM.nc,0.0002813834424361426,1.3714767365337712,0.6155639746759001,1.8124422653116845,2.3525681,3.277421,0.7952371,0.015249904,6.530272,41.71772,-338.60495,202.47452,50,given_smb,false,routing,routing,th,pism_g450m_frontretreat_calfin_1972_2019.nc,pseudo_plastic
57,525112.3825071952,0.00011304515184154727,MAR3.9_CNRM-CM6_ssp585_ocean_1960-2100_v4.nc,2.0,DMI-HIRHAM5_ERA_1975_2021_EPSG3413_4500M_MM.nc,0.0002611774507777562,1.0165323279376492,0.534373186148984,1.127167523988421,2.733264,3.3431292,0.69941306,0.013424041,11.560108,42.53484,-276.84464,117.207954,50,given_smb,false,routing,routing,th,pism_g450m_frontretreat_calfin_1972_2019.nc,pseudo_plastic
58,355014.0988843189,9.670332631243138e-05,MAR3.9_MIROC-ESM-CHEM_rcp26_ocean_1960-2100_v4.nc,6.0,DMI-HIRHAM5_ERA_1975_2021_EPSG3413_4500M_MM.nc,0.00025592561162367244,1.592334157376357,0.4633710361068852,1.8556043041456292,1.7867398,3.2867498,0.777672,0.018715695,6.596855,41.870785,-367.6641,280.6285,50,given_smb,false,routing,routing,th,pism_g450m_frontretreat_calfin_1972_2019.nc,pseudo_plastic
59,551090.772594847,0.00010457324104747532,MAR3.9_CNRM-CM6_ssp126_ocean_1960-2100_v4.nc,0.0,MARv3.14-monthly-ERA5-1975_2023.nc,0.0002753772062636668,1.3113415841089162,0.49514410220723704,2.7744820622905313,2.1758,3.3775983,0.6676412,0.016063498,9.09225,44.17679,-381.15375,200.77512,50,given_smb,false,routing,routing,th,pism_g450m_frontretreat_calfin_1972_2019.nc,pseudo_plastic
60,623428.6360854348,0.00010895281361421343,MAR3.9_MIROC-ESM-CHEM_rcp26_ocean_1960-2100_v4.nc,2.0,MARv3.14-monthly-ERA5-1975_2023.nc,0.00026864109020751975,1.581388120646955,0.644054833705095,1.3832827460879114,2.3453786,3.2606924,0.7652499,0.017003804,5.770803,41.3659,-341.26474,283.18744,50,given_smb,false,routing,routing,th,pism_g450m_frontretreat_calfin_1972_2019.nc,pseudo_plastic
61,518858.0298019271,0.00011368581043146763,MAR3.9_CSIRO-Mk3.6_rcp85_ocean_1960-2100_v4.nc,6.0,MARv3.14-monthly-ERA5-1975_2023.nc,0.00024358392656595774,1.2079149797197473,0.3913973354384006,1.866263898386053,2.6760592,3.3001842,0.5648777,0.021136971,5.6734476,44.30835,-386.73892,292.8368,50,given_smb,false,routing,routing,th,pism_g450m_frontretreat_calfin_1972_2019.nc,pseudo_plastic
62,597048.2557011265,8.154106723170322e-05,MAR3.9_MIROC-ESM-CHEM_rcp85_ocean_1960-2100_v4.nc,2.0,DMI-HIRHAM5_ERA_1975_2021_EPSG3413_4500M_MM.nc,0.0003409148043213545,1.4260106854911982,0.658321065715987,2.728021527874793,2.0055828,3.3577232,0.67550564,0.014800744,10.1605425,44.609787,-662.74646,501.97467,50,given_smb,false,routing,routing,th,pism_g450m_frontretreat_calfin_1972_2019.nc,pseudo_plastic
63,452321.31562381296,0.0001376457086889881,MAR3.9_IPSL-CM5-MR_rcp85_ocean_1960-2100_v4.nc,5.0,DMI-HIRHAM5_ERA_1975_2021_EPSG3413_4500M_MM.nc,0.00035087837573896885,1.2976329918003326,0.6201286696496161,2.524677389937737,2.9163241,3.3659708,0.80653554,0.017165672,8.148336,43.191486,-295.0502,146.19495,50,given_smb,false,routing,routing,th,pism_g450m_frontretreat_calfin_1972_2019.nc,pseudo_plastic
64,439309.7960150068,8.242509615283336e-05,MAR3.9_IPSL-CM5-MR_rcp85_ocean_1960-2100_v4.nc,0.0,MARv3.14-monthly-ERA5-1975_2023.nc,0.0002988497859523973,1.6621662002961548,0.46727257126268124,2.5835752390895523,3.4162521,3.3811462,0.7527569,0.021832014,6.449894,44.072693,-450.4919,321.52148,50,given_smb,false,routing,routing,th,pism_g450m_frontretreat_calfin_1972_2019.nc,pseudo_plastic
65,484360.4248037668,0.0001192061056311916,MAR3.9_MIROC-ESM-CHEM_rcp85_ocean_1960-2100_v4.nc,1.0,MARv3.14-monthly-ERA5-1975_2023.nc,0.0003095563519119531,1.115890380534998,0.5948014922606304,2.37754384677386,2.6415267,3.3008869,0.7293258,0.014547675,5.7671857,43.60388,-413.56827,195.58302,50,given_smb,false,routing,routing,th,pism_g450m_frontretreat_calfin_1972_2019.nc,pseudo_plastic
66,462593.05089406576,0.00012151388962108802,MAR3.9_NorESM1-M_rcp85_ocean_1960-2100_v4.nc,3.0,MARv3.14-monthly-ERA5-1975_2023.nc,0.00024191911341010604,1.5216204962309898,0.3482451674310982,1.2919091501926192,2.9658322,3.3378563,0.8469613,0.018007867,8.151296,43.806347,-305.58316,178.09428,50,given_smb,false,routing,routing,th,pism_g450m_frontretreat_calfin_1972_2019.nc,pseudo_plastic
67,380508.92769188946,0.00012943695924805775,MAR3.9_NorESM1-M_rcp85_ocean_1960-2100_v4.nc,3.0,MARv3.14-monthly-ERA5-1975_2023.nc,0.00034005248617725056,1.131688851415793,0.4817524231100362,1.5318776492431507,2.8171892,3.3371098,0.74558055,0.018671937,7.439088,42.33959,-307.28177,227.24428,50,given_smb,false,routing,routing,th,pism_g450m_frontretreat_calfin_1972_2019.nc,pseudo_plastic
68,644693.5820697828,8.558932162503781e-05,MAR3.9_IPSL-CM5-MR_rcp85_ocean_1960-2100_v4.nc,4.0,DMI-HIRHAM5_ERA_1975_2021_EPSG3413_4500M_MM.nc,0.0003051609837285621,1.2132677378260335,0.506928884847103,1.429809961119119,2.6951134,3.2972035,0.6838169,0.019349214,5.7266297,42.2489,-459.735,217.6689,50,given_smb,false,routing,routing,th,pism_g450m_frontretreat_calfin_1972_2019.nc,pseudo_plastic
69,395025.4971306091,8.364742267593682e-05,MAR3.9_MIROC-ESM-CHEM_rcp85_ocean_1960-2100_v4.nc,2.0,MARv3.14-monthly-ERA5-1975_2023.nc,0.000330057800725492,1.4981171846018444,0.5880906876714729,1.4022325559344575,2.9614365,3.3102036,0.5817838,0.02520923,8.885109,41.89267,-272.06635,323.9776,50,given_smb,false,routing,routing,th,pism_g450m_frontretreat_calfin_1972_2019.nc,pseudo_plastic
70,593448.7243289032,0.00014854669134745248,MAR3.9_NorESM1-M_rcp85_ocean_1960-2100_v4.nc,3.0,DMI-HIRHAM5_ERA_1975_2021_EPSG3413_4500M_MM.nc,0.0003366265924497824,1.0665253305130997,0.3250181148008144,1.3058793685424515,2.5614488,3.29135,0.8001959,0.017429462,6.794484,43.799656,-307.02563,344.6793,50,given_smb,false,routing,routing,th,pism_g450m_frontretreat_calfin_1972_2019.nc,pseudo_plastic
71,498506.26029349404,0.0001208073381228856,MAR3.9_HadGEM2-ES_rcp85_ocean_1960-2100_v4.nc,6.0,DMI-HIRHAM5_ERA_1975_2021_EPSG3413_4500M_MM.nc,0.0003157425952793378,1.597451746118466,0.406959660796125,2.020855025404833,2.843646,3.3316288,0.7606034,0.01736491,8.690579,43.217834,-306.64597,243.20645,50,given_smb,false,routing,routing,th,pism_g450m_frontretreat_calfin_1972_2019.nc,pseudo_plastic
72,638726.9903288054,8.08834481016134e-05,MAR3.9_CNRM-CM6_ssp126_ocean_1960-2100_v4.nc,1.0,MARv3.14-monthly-ERA5-1975_2023.nc,0.0003041984502582943,1.572332582278023,0.3822469255759667,2.494540688243444,2.957925,3.2894588,0.79480034,0.019948693,5.288625,41.95031,-366.35086,236.69907,50,given_smb,false,routing,routing,th,pism_g450m_frontretreat_calfin_1972_2019.nc,pseudo_plastic
73,568143.4624328471,9.286246951427637e-05,MAR3.9_HadGEM2-ES_rcp85_ocean_1960-2100_v4.nc,3.0,MARv3.14-monthly-ERA5-1975_2023.nc,0.00027264266939560174,1.098446324757858,0.5859921364711546,1.5132193711040614,3.5415041,3.4114194,0.715485,0.023938505,11.78252,44.44558,-170.5433,293.50934,50,given_smb,false,routing,routing,th,pism_g450m_frontretreat_calfin_1972_2019.nc,pseudo_plastic
74,560503.0176986558,0.00013896096672368454,MAR3.9_CSIRO-Mk3.6_rcp85_ocean_1960-2100_v4.nc,1.0,DMI-HIRHAM5_ERA_1975_2021_EPSG3413_4500M_MM.nc,0.00032126838872427465,1.1667209898664879,0.4896326225093118,2.4823313598149435,2.312743,3.3723328,0.8913725,0.013313683,8.27833,44.514706,-577.3957,209.8654,50,given_smb,false,routing,routing,th,pism_g450m_frontretreat_calfin_1972_2019.nc,pseudo_plastic
75,471881.02537247766,0.00012480522185589232,MAR3.9_HadGEM2-ES_rcp85_ocean_1960-2100_v4.nc,5.0,DMI-HIRHAM5_ERA_1975_2021_EPSG3413_4500M_MM.nc,0.0002854164922812035,1.0601669125747368,0.5103843696886895,1.2357758796828426,2.688475,3.345929,0.7763073,0.02135813,6.331067,44.01487,-458.28763,575.42584,50,given_smb,false,routing,routing,th,pism_g450m_frontretreat_calfin_1972_2019.nc,pseudo_plastic
76,495911.3925757507,0.00010374261054692352,MAR3.9_UKESM1-CM6_ssp585_ocean_1960-2100_v4.nc,6.0,MARv3.14-monthly-ERA5-1975_2023.nc,0.00031223877116269214,1.073033965640368,0.3958840298180498,1.5813634429997572,2.752202,3.2910607,0.8421131,0.020067582,7.4276557,42.27481,-266.95663,344.90057,50,given_smb,false,routing,routing,th,pism_g450m_frontretreat_calfin_1972_2019.nc,pseudo_plastic
77,511757.7376117313,0.00012786233174115087,MAR3.9_UKESM1-CM6_ssp585_ocean_1960-2100_v4.nc,4.0,DMI-HIRHAM5_ERA_1975_2021_EPSG3413_4500M_MM.nc,0.00035558802622631474,1.3263232298128853,0.41900892951400603,1.1786144239456684,2.6923506,3.36674,0.8266437,0.016175507,10.128435,42.458588,-208.10393,133.50381,50,given_smb,false,routing,routing,th,pism_g450m_frontretreat_calfin_1972_2019.nc,pseudo_plastic
78,364662.74613533064,0.00011595335023502503,MAR3.9_HadGEM2-ES_rcp85_ocean_1960-2100_v4.nc,4.0,MARv3.14-monthly-ERA5-1975_2023.nc,0.0003392274343005679,1.1515514933199054,0.39999322451710306,1.9042821729561648,3.1947818,3.2844217,0.7530103,0.019034745,7.2568407,44.610542,-348.4443,163.21042,50,given_smb,false,routing,routing,th,pism_g450m_frontretreat_calfin_1972_2019.nc,pseudo_plastic
79,587267.5459737659,8.843191434108456e-05,MAR3.9_ACCESS1-3_rcp85_ocean_1960-2100_v4.nc,6.0,MARv3.14-monthly-ERA5-1975_2023.nc,0.0003470933070697636,1.3846338248976364,0.36547173517612763,1.674314539744499,2.7705905,3.3703997,0.8610636,0.02003321,5.9372425,44.147083,-314.80273,323.13693,50,given_smb,false,routing,routing,th,pism_g450m_frontretreat_calfin_1972_2019.nc,pseudo_plastic
80,428820.8595811011,0.00012697289512466736,MAR3.9_CNRM-CM6_ssp585_ocean_1960-2100_v4.nc,6.0,MARv3.14-monthly-ERA5-1975_2023.nc,0.00031718820806800785,1.5783740304844203,0.6508227453170137,2.7387257880227276,2.6636012,3.31645,0.7823342,0.01666992,10.001711,44.654625,-490.77237,199.967,50,given_smb,false,routing,routing,th,pism_g450m_frontretreat_calfin_1972_2019.nc,pseudo_plastic
81,563259.1662859315,9.987623435917382e-05,MAR3.9_CNRM-ESM2_ssp585_ocean_1960-2100_v4.nc,5.0,MARv3.14-monthly-ERA5-1975_2023.nc,0.00029054478826087574,1.6093013400879823,0.3155849887775616,1.18547373884898,2.4848151,3.2456446,0.6442647,0.027636737,8.376846,40.49554,-334.07162,541.5968,50,given_smb,false,routing,routing,th,pism_g450m_frontretreat_calfin_1972_2019.nc,pseudo_plastic
82,449238.0590232881,0.00012538588019892787,MAR3.9_CNRM-ESM2_ssp585_ocean_1960-2100_v4.nc,6.0,DMI-HIRHAM5_ERA_1975_2021_EPSG3413_4500M_MM.nc,0.0002616495890389681,1.4102539351285208,0.32854274523892046,2.0491874195005293,2.8949385,3.3696203,0.8015405,0.021120032,7.263113,42.87507,-300.23807,355.05396,50,given_smb,false,routing,routing,th,pism_g450m_frontretreat_calfin_1972_2019.nc,pseudo_plastic
83,513623.31309531524,0.00012019096510514031,MAR3.9_NorESM1-M_rcp85_ocean_1960-2100_v4.nc,1.0,MARv3.14-monthly-ERA5-1975_2023.nc,0.00027185764907189044,1.2845607565421067,0.5268446650048326,2.7534577233118562,2.8995273,3.2695723,0.58901227,0.018014222,6.7504067,44.45894,-473.266,343.1389,50,given_smb,false,routing,routing,th,pism_g450m_frontretreat_calfin_1972_2019.nc,pseudo_plastic
84,590634.2950848863,0.00012653780351531459,MAR3.9_CSIRO-Mk3.6_rcp85_ocean_1960-2100_v4.nc,1.0,MARv3.14-monthly-ERA5-1975_2023.nc,0.00035237838856204125,1.6458264448074778,0.548574743544554,2.3220088670908865,2.9315653,3.372243,0.76036423,0.01554572,7.848298,44.737667,-379.36533,98.08697,50,given_smb,false,routing,routing,th,pism_g450m_frontretreat_calfin_1972_2019.nc,pseudo_plastic
85,527383.1167702746,7.847568183768122e-05,MAR3.9_CNRM-ESM2_ssp585_ocean_1960-2100_v4.nc,6.0,MARv3.14-monthly-ERA5-1975_2023.nc,0.00028052011907109226,1.4600955520283596,0.5236639274027197,1.6152189105614485,2.042773,3.3132713,0.8767383,0.012045989,5.742553,43.508003,-440.13452,80.2885,50,given_smb,false,routing,routing,th,pism_g450m_frontretreat_calfin_1972_2019.nc,pseudo_plastic
86,618543.5464381187,0.00013178148876668362,MAR3.9_MIROC-ESM-CHEM_rcp85_ocean_1960-2100_v4.nc,4.0,DMI-HIRHAM5_ERA_1975_2021_EPSG3413_4500M_MM.nc,0.00025927911759425026,1.1061319176990791,0.5709115363614317,2.088343433236325,2.5397317,3.3147433,0.67773247,0.017637182,6.8700943,44.74173,-515.6903,395.82034,50,given_smb,false,routing,routing,th,pism_g450m_frontretreat_calfin_1972_2019.nc,pseudo_plastic
87,582054.9453160963,0.00010102876432776961,MAR3.9_ACCESS1-3_rcp85_ocean_1960-2100_v4.nc,2.0,MARv3.14-monthly-ERA5-1975_2023.nc,0.00031381629256908,1.0341404874421076,0.6869559065530461,2.2151183633333513,2.1425054,3.3291132,0.71706945,0.012725572,6.0658154,43.117165,-579.13416,215.82841,50,given_smb,false,routing,routing,th,pism_g450m_frontretreat_calfin_1972_2019.nc,pseudo_plastic
88,574528.269120637,0.00011048212892688549,MAR3.9_CNRM-ESM2_ssp585_ocean_1960-2100_v4.nc,0.0,MARv3.14-monthly-ERA5-1975_2023.nc,0.0002499219404269489,1.5534986445307428,0.3392515714309746,1.1679331714773435,2.4309628,3.307064,0.71370065,0.018449754,8.179817,41.50767,-259.1931,212.82657,50,given_smb,false,routing,routing,th,pism_g450m_frontretreat_calfin_1972_2019.nc,pseudo_plastic
89,436651.761810014,8.646105195130269e-05,MAR3.9_CNRM-CM6_ssp585_ocean_1960-2100_v4.nc,4.0,DMI-HIRHAM5_ERA_1975_2021_EPSG3413_4500M_MM.nc,0.00026595014644409517,1.686317234567868,0.4341891595727738,1.207536047753669,2.5023973,3.3165205,0.6099376,0.018073076,7.471387,44.646584,-368.00397,125.345764,50,given_smb,false,routing,routing,th,pism_g450m_frontretreat_calfin_1972_2019.nc,pseudo_plastic
90,411157.70349518815,7.758859595451984e-05,MAR3.9_CNRM-CM6_ssp585_ocean_1960-2100_v4.nc,0.0,MARv3.14-monthly-ERA5-1975_2023.nc,0.00032032056296649793,1.0393228348204266,0.5578977898156664,2.6274278594161555,3.1605785,3.3686364,0.77263224,0.014568497,8.914977,43.12345,-340.73526,57.35938,50,given_smb,false,routing,routing,th,pism_g450m_frontretreat_calfin_1972_2019.nc,pseudo_plastic
91,401407.89741307416,0.00013632797089814977,MAR3.9_HadGEM2-ES_rcp85_ocean_1960-2100_v4.nc,2.0,MARv3.14-monthly-ERA5-1975_2023.nc,0.00024048327338597626,1.2283446927462047,0.631629719878297,1.8149823580322497,2.587055,3.2937949,0.6977663,0.017130118,6.2258286,44.628963,-380.84933,179.50435,50,given_smb,false,routing,routing,th,pism_g450m_frontretreat_calfin_1972_2019.nc,pseudo_plastic
92,516930.4799744453,9.385849818882954e-05,MAR3.9_IPSL-CM5-MR_rcp85_ocean_1960-2100_v4.nc,2.0,DMI-HIRHAM5_ERA_1975_2021_EPSG3413_4500M_MM.nc,0.00024483771267301416,1.464561396331845,0.4136224455920561,1.629700147294793,2.0675542,3.304299,0.73902017,0.0145480335,6.7093043,43.717743,-441.70444,150.96005,50,given_smb,false,routing,routing,th,pism_g450m_frontretreat_calfin_1972_2019.nc,pseudo_plastic
93,601877.2491666147,7.608790715179263e-05,MAR3.9_CNRM-CM6_ssp585_ocean_1960-2100_v4.nc,0.0,DMI-HIRHAM5_ERA_1975_2021_EPSG3413_4500M_MM.nc,0.00031157212877941837,1.3680386359825387,0.4855563275292793,2.177101753367181,2.5515668,3.356237,0.7229837,0.018672287,8.556582,44.76302,-279.68787,140.25638,50,given_smb,false,routing,routing,th,pism_g450m_frontretreat_calfin_1972_2019.nc,pseudo_plastic
94,605256.2437423371,0.00011675824697606092,MAR3.9_MIROC-ESM-CHEM_rcp85_ocean_1960-2100_v4.nc,4.0,MARv3.14-monthly-ERA5-1975_2023.nc,0.0002916375515101961,1.3596595975615913,0.3763474884091759,1.4180430692127153,3.1126502,3.3390257,0.6162174,0.023959383,10.782092,42.200687,-430.70035,530.5098,50,given_smb,false,routing,routing,th,pism_g450m_frontretreat_calfin_1972_2019.nc,pseudo_plastic
95,419050.7188077448,0.00013372389946473168,MAR3.9_CSIRO-Mk3.6_rcp85_ocean_1960-2100_v4.nc,3.0,MARv3.14-monthly-ERA5-1975_2023.nc,0.0002972176737281205,1.3354620902302425,0.4278923897104467,2.562552738334534,2.6436896,3.303169,0.7619154,0.015708933,5.328975,43.47872,-463.43497,238.72954,50,given_smb,false,routing,routing,th,pism_g450m_frontretreat_calfin_1972_2019.nc,pseudo_plastic
96,627612.0276969711,9.939826930258473e-05,MAR3.9_MIROC-ESM-CHEM_rcp85_ocean_1960-2100_v4.nc,4.0,DMI-HIRHAM5_ERA_1975_2021_EPSG3413_4500M_MM.nc,0.00033432948413146464,1.4913496304513194,0.6980535858204479,2.5440581719951414,2.3916304,3.251521,0.6983351,0.017739942,6.8496766,41.914795,-402.82568,320.11337,50,given_smb,false,routing,routing,th,pism_g450m_frontretreat_calfin_1972_2019.nc,pseudo_plastic
97,533001.4261935205,0.00011180266836307862,MAR3.9_CSIRO-Mk3.6_rcp85_ocean_1960-2100_v4.nc,4.0,MARv3.14-monthly-ERA5-1975_2023.nc,0.0002880915413398564,1.6788354227707156,0.4226516128673218,1.332277591164502,2.127189,3.3267,0.80458033,0.017664334,9.213693,40.884045,-299.89746,331.3039,50,given_smb,false,routing,routing,th,pism_g450m_frontretreat_calfin_1972_2019.nc,pseudo_plastic
98,532975.4896500852,0.00010312173604654719,MAR3.9_CNRM-CM6_ssp126_ocean_1960-2100_v4.nc,1.0,MARv3.14-monthly-ERA5-1975_2023.nc,0.0002634255126610144,1.0429342542019995,0.6037208797272304,2.135369130244179,2.6146076,3.2903264,0.808413,0.01904121,6.4122267,44.73491,-366.77963,254.59686,50,given_smb,false,routing,routing,th,pism_g450m_frontretreat_calfin_1972_2019.nc,pseudo_plastic
99,636687.8038870301,0.00014219213789145116,MAR3.9_CNRM-CM6_ssp585_ocean_1960-2100_v4.nc,0.0,MARv3.14-monthly-ERA5-1975_2023.nc,0.00030656317038118544,1.346283508615516,0.6095487090667495,1.5519083758416725,2.5176287,3.2629027,0.822271,0.017033422,8.113984,43.675484,-236.1058,149.76643,50,given_smb,false,routing,routing,th,pism_g450m_frontretreat_calfin_1972_2019.nc,pseudo_plastic
