id,calving.vonmises_calving.sigma_max,calving.rate_scaling.file,ocean.th.gamma_T,ocean_file,climate_file,frontal_melt.routing.parameter_a,frontal_melt.routing.parameter_b,frontal_melt.routing.power_alpha,frontal_melt.routing.power_beta,stress_balance.sia.enhancement_factor,stress_balance.ssa.Glen_exponent,basal_resistance.pseudo_plastic.q,basal_yield_stress.mohr_coulomb.till_effective_fraction_overburden,basal_yield_stress.mohr_coulomb.topg_to_phi.phi_min,basal_yield_stress.mohr_coulomb.topg_to_phi.phi_max,basal_yield_stress.mohr_coulomb.topg_to_phi.topg_min,basal_yield_stress.mohr_coulomb.topg_to_phi.topg_max,calving.thickness_calving.threshold,climate,fractures,frontal_melt,hydrology,ocean.models,prescribed_retreat_file,sliding_law
0,442399.27318654646,seasonal_calving_id_0_1975_2025.nc,9.310575324544063e-05,MAR3.9_CSIRO-Mk3.6_rcp85_ocean_1960-2100_v4.nc,MARv3.14-monthly-ERA5-1975_2023.nc,0.00031697714471159847,1.688615813997873,0.5635699453463603,1.5519350999403003,2.6601102,3.3581607,0.87468463,0.019746758,7.523882,41.121086,-340.95676,307.04852,50,given_smb,false,routing,routing,th,pism_g450m_frontretreat_calfin_1972_2019.nc,pseudo_plastic
1,610280.0211445709,seasonal_calving_id_0_1975_2025.nc,0.00012748499780046083,MAR3.9_IPSL-CM5-MR_rcp85_ocean_1960-2100_v4.nc,DMI-HIRHAM5_ERA_1975_2021_EPSG3413_4500M_MM.nc,0.0002532597948066543,1.2284702159128074,0.30877592051810576,1.1502446040833678,2.5280364,3.239762,0.6261987,0.020029072,9.958255,40.37857,-311.35138,40.310013,50,given_smb,false,routing,routing,th,pism_g450m_frontretreat_calfin_1972_2019.nc,pseudo_plastic
2,533902.7340358725,seasonal_calving_id_5_1975_2025.nc,0.00010156987234556512,MAR3.9_MIROC-ESM-CHEM_rcp85_ocean_1960-2100_v4.nc,DMI-HIRHAM5_ERA_1975_2021_EPSG3413_4500M_MM.nc,0.00026293221428661743,1.375993332145657,0.6449508335978078,2.5042167505386317,2.5444095,3.3278131,0.8407053,0.016669784,9.145487,43.06408,-310.70322,179.46878,50,given_smb,false,routing,routing,th,pism_g450m_frontretreat_calfin_1972_2019.nc,pseudo_plastic
3,540435.0732743568,seasonal_calving_id_0_1975_2025.nc,8.24633058714223e-05,MAR3.9_CNRM-CM6_ssp585_ocean_1960-2100_v4.nc,MARv3.14-monthly-ERA5-1975_2023.nc,0.0003369691221750503,1.2737370164599808,0.35599644949785697,1.6863208183653522,3.2018907,3.3309119,0.7444336,0.020341383,9.122324,41.15958,-363.4988,212.53287,50,given_smb,false,routing,routing,th,pism_g450m_frontretreat_calfin_1972_2019.nc,pseudo_plastic
4,365346.0360445987,seasonal_calving_id_6_1975_2025.nc,0.0001291150665582762,MAR3.9_MIROC-ESM-CHEM_rcp85_ocean_1960-2100_v4.nc,DMI-HIRHAM5_ERA_1975_2021_EPSG3413_4500M_MM.nc,0.00035154443263228077,1.2953085702703238,0.3155592609116324,2.1976664043070206,1.9807045,3.3003998,0.7262591,0.014993031,8.409572,42.855083,-357.7597,202.59805,50,given_smb,false,routing,routing,th,pism_g450m_frontretreat_calfin_1972_2019.nc,pseudo_plastic
5,625775.0925305821,seasonal_calving_id_3_1975_2025.nc,0.00011515434193649265,MAR3.9_CNRM-ESM2_ssp585_ocean_1960-2100_v4.nc,DMI-HIRHAM5_ERA_1975_2021_EPSG3413_4500M_MM.nc,0.00033547937695560157,1.139193217114686,0.4968788164420314,1.3275185719587095,2.5417511,3.326942,0.8046925,0.02155403,6.689741,41.30233,-327.15573,201.41106,50,given_smb,false,routing,routing,th,pism_g450m_frontretreat_calfin_1972_2019.nc,pseudo_plastic
6,402388.9406425159,seasonal_calving_id_3_1975_2025.nc,9.530803362371432e-05,MAR3.9_ACCESS1-3_rcp85_ocean_1960-2100_v4.nc,MARv3.14-monthly-ERA5-1975_2023.nc,0.0002588237883616744,1.1900662113057372,0.5851784196270826,1.949997790416643,2.5453248,3.3519819,0.83037615,0.01579174,6.9651136,44.016457,-265.91962,88.068535,50,given_smb,false,routing,routing,th,pism_g450m_frontretreat_calfin_1972_2019.nc,pseudo_plastic
7,567206.7905798099,seasonal_calving_id_4_1975_2025.nc,0.00014654036057802988,MAR3.9_ACCESS1-3_rcp85_ocean_1960-2100_v4.nc,MARv3.14-monthly-ERA5-1975_2023.nc,0.0002967712409280188,1.0486975282252025,0.4722479364468417,1.6881335714439734,3.019852,3.323387,0.71596926,0.023913639,9.479254,42.918285,-161.39474,181.95378,50,given_smb,false,routing,routing,th,pism_g450m_frontretreat_calfin_1972_2019.nc,pseudo_plastic
8,611306.4149303349,seasonal_calving_id_2_1975_2025.nc,0.00013469431590476758,MAR3.9_HadGEM2-ES_rcp85_ocean_1960-2100_v4.nc,DMI-HIRHAM5_ERA_1975_2021_EPSG3413_4500M_MM.nc,0.0003099387847328021,1.4668225497300011,0.5062619127390093,1.393586119145624,2.3278465,3.3086252,0.65787774,0.015055009,10.077269,42.754486,-387.3943,251.15685,50,given_smb,false,routing,routing,th,pism_g450m_frontretreat_calfin_1972_2019.nc,pseudo_plastic
9,560586.2818225273,seasonal_calving_id_0_1975_2025.nc,7.622581182031149e-05,MAR3.9_CNRM-ESM2_ssp585_ocean_1960-2100_v4.nc,MARv3.14-monthly-ERA5-1975_2023.nc,0.0003583940246900347,1.3996770053642884,0.4433085764183439,1.5826163287471582,2.639296,3.2864563,0.73654133,0.0285654,6.800165,42.16663,-326.42966,806.69885,50,given_smb,false,routing,routing,th,pism_g450m_frontretreat_calfin_1972_2019.nc,pseudo_plastic
10,487034.03631294845,seasonal_calving_id_6_1975_2025.nc,0.00010608319978428984,MAR3.9_IPSL-CM5-MR_rcp85_ocean_1960-2100_v4.nc,DMI-HIRHAM5_ERA_1975_2021_EPSG3413_4500M_MM.nc,0.00030605882482812605,1.586181336286273,0.42270401315673006,1.2800336423493963,2.5809994,3.3044136,0.62945694,0.016555429,5.3332553,44.21669,-513.13715,362.53476,50,given_smb,false,routing,routing,th,pism_g450m_frontretreat_calfin_1972_2019.nc,pseudo_plastic
11,604652.3690966758,seasonal_calving_id_6_1975_2025.nc,7.760494790783728e-05,MAR3.9_CNRM-CM6_ssp585_ocean_1960-2100_v4.nc,MARv3.14-monthly-ERA5-1975_2023.nc,0.00032034744945728857,1.261887335581891,0.6417078228587786,1.9757434106588248,2.9534857,3.3027756,0.70853615,0.020104019,7.65761,41.997723,-254.73526,215.70932,50,given_smb,false,routing,routing,th,pism_g450m_frontretreat_calfin_1972_2019.nc,pseudo_plastic
12,537639.1112039379,seasonal_calving_id_1_1975_2025.nc,0.00014595779470588102,MAR3.9_NorESM1-M_rcp85_ocean_1960-2100_v4.nc,MARv3.14-monthly-ERA5-1975_2023.nc,0.00030234769561038094,1.0928486015649417,0.4849963216600223,1.9896036619230093,2.0866945,3.303034,0.73999894,0.015869167,10.044788,41.08971,-292.76505,146.41823,50,given_smb,false,routing,routing,th,pism_g450m_frontretreat_calfin_1972_2019.nc,pseudo_plastic
13,602888.7344833331,seasonal_calving_id_6_1975_2025.nc,0.00011570406074977458,MAR3.9_CSIRO-Mk3.6_rcp85_ocean_1960-2100_v4.nc,DMI-HIRHAM5_ERA_1975_2021_EPSG3413_4500M_MM.nc,0.0002734254336867498,1.0833764377339525,0.6003507956427064,2.2548374717691217,1.8789861,3.3529263,0.7784652,0.01399526,7.3662157,43.83763,-414.8434,214.2725,50,given_smb,false,routing,routing,th,pism_g450m_frontretreat_calfin_1972_2019.nc,pseudo_plastic
14,634676.5826161483,seasonal_calving_id_1_1975_2025.nc,9.722364253671082e-05,MAR3.9_NorESM1-M_rcp85_ocean_1960-2100_v4.nc,MARv3.14-monthly-ERA5-1975_2023.nc,0.00033280069807224894,1.4804378189324527,0.6426148039770012,1.2998759589551452,2.4670064,3.2791705,0.7181443,0.021499967,6.661894,40.17042,-304.94598,276.15982,50,given_smb,false,routing,routing,th,pism_g450m_frontretreat_calfin_1972_2019.nc,pseudo_plastic
15,543374.6169388951,seasonal_calving_id_2_1975_2025.nc,0.00014208315172558803,MAR3.9_MIROC-ESM-CHEM_rcp26_ocean_1960-2100_v4.nc,DMI-HIRHAM5_ERA_1975_2021_EPSG3413_4500M_MM.nc,0.00033400087412287113,1.3238444105244196,0.5490416719323512,1.1981847101990153,2.9752157,3.3312516,0.8434425,0.023767687,6.097449,43.659126,-216.75261,209.36389,50,given_smb,false,routing,routing,th,pism_g450m_frontretreat_calfin_1972_2019.nc,pseudo_plastic
16,574817.0995070627,seasonal_calving_id_0_1975_2025.nc,0.00014736862229718962,MAR3.9_MIROC-ESM-CHEM_rcp85_ocean_1960-2100_v4.nc,DMI-HIRHAM5_ERA_1975_2021_EPSG3413_4500M_MM.nc,0.0002978218826404797,1.3946666811005928,0.33154671527419666,2.6972027725852055,2.6812675,3.303408,0.5678329,0.01764652,9.035683,42.529305,-418.34467,108.607735,50,given_smb,false,routing,routing,th,pism_g450m_frontretreat_calfin_1972_2019.nc,pseudo_plastic
17,547621.2691943664,seasonal_calving_id_6_1975_2025.nc,9.595643561956568e-05,MAR3.9_NorESM1-M_rcp85_ocean_1960-2100_v4.nc,MARv3.14-monthly-ERA5-1975_2023.nc,0.00029597074112866733,1.6380055227980783,0.598472350252446,1.7904428428741541,3.0572376,3.3503132,0.80682045,0.01873576,6.0264225,41.793518,-412.3467,215.46501,50,given_smb,false,routing,routing,th,pism_g450m_frontretreat_calfin_1972_2019.nc,pseudo_plastic
18,358269.3764940231,seasonal_calving_id_1_1975_2025.nc,0.00014788450577690209,MAR3.9_HadGEM2-ES_rcp85_ocean_1960-2100_v4.nc,MARv3.14-monthly-ERA5-1975_2023.nc,0.0003400506177016608,1.6604580920248975,0.502158918027592,1.5478151257880883,2.6144028,3.2859762,0.78150886,0.018524341,7.5567064,44.68182,-286.1287,361.39914,50,given_smb,false,routing,routing,th,pism_g450m_frontretreat_calfin_1972_2019.nc,pseudo_plastic
19,387860.504744842,seasonal_calving_id_0_1975_2025.nc,0.00012296858612505007,MAR3.9_CSIRO-Mk3.6_rcp85_ocean_1960-2100_v4.nc,DMI-HIRHAM5_ERA_1975_2021_EPSG3413_4500M_MM.nc,0.00026588904732947704,1.2577208309523218,0.3073183131380874,2.006587321147223,2.5935085,3.3042672,0.83166075,0.01793764,6.2763333,40.6433,-377.85477,209.541,50,given_smb,false,routing,routing,th,pism_g450m_frontretreat_calfin_1972_2019.nc,pseudo_plastic
20,370124.740376508,seasonal_calving_id_2_1975_2025.nc,0.00014470412958679624,MAR3.9_ACCESS1-3_rcp85_ocean_1960-2100_v4.nc,DMI-HIRHAM5_ERA_1975_2021_EPSG3413_4500M_MM.nc,0.00032592404427201136,1.0350240565068862,0.3042336705077798,2.1324313689229486,2.75782,3.321939,0.83468443,0.023643928,5.915508,44.4213,-276.1445,189.14697,50,given_smb,false,routing,routing,th,pism_g450m_frontretreat_calfin_1972_2019.nc,pseudo_plastic
21,424492.5938553584,seasonal_calving_id_3_1975_2025.nc,0.00010201283464557223,MAR3.9_CNRM-ESM2_ssp585_ocean_1960-2100_v4.nc,MARv3.14-monthly-ERA5-1975_2023.nc,0.00030108453611106095,1.1437507123759736,0.31922676284896584,2.271449036417782,2.5931153,3.2771544,0.68007493,0.020729832,7.5361986,44.4798,-311.25455,461.2191,50,given_smb,false,routing,routing,th,pism_g450m_frontretreat_calfin_1972_2019.nc,pseudo_plastic
22,619806.1227432722,seasonal_calving_id_0_1975_2025.nc,0.00010865316093653326,MAR3.9_NorESM1-M_rcp85_ocean_1960-2100_v4.nc,DMI-HIRHAM5_ERA_1975_2021_EPSG3413_4500M_MM.nc,0.00029564303671495774,1.5306301948798937,0.6276096089745321,1.5274147518741124,1.9574368,3.307053,0.7191691,0.0149444705,6.3634048,42.29138,-463.70724,260.93936,50,given_smb,false,routing,routing,th,pism_g450m_frontretreat_calfin_1972_2019.nc,pseudo_plastic
23,523361.6677153264,seasonal_calving_id_2_1975_2025.nc,0.00013436000445354269,MAR3.9_MIROC-ESM-CHEM_rcp85_ocean_1960-2100_v4.nc,MARv3.14-monthly-ERA5-1975_2023.nc,0.00028400970954763717,1.0339597021648068,0.6599566709923235,2.6098223293049156,2.5973477,3.3777506,0.804308,0.011936645,11.113992,43.441708,-420.52426,46.685802,50,given_smb,false,routing,routing,th,pism_g450m_frontretreat_calfin_1972_2019.nc,pseudo_plastic
24,390172.8371275729,seasonal_calving_id_6_1975_2025.nc,0.00012956238344545085,MAR3.9_MIROC-ESM-CHEM_rcp26_ocean_1960-2100_v4.nc,DMI-HIRHAM5_ERA_1975_2021_EPSG3413_4500M_MM.nc,0.00033317550722342294,1.4917696227830244,0.33428827592503224,1.7507378539097402,2.7551377,3.329759,0.6298577,0.016757442,8.828326,42.884064,-579.6539,314.99454,50,given_smb,false,routing,routing,th,pism_g450m_frontretreat_calfin_1972_2019.nc,pseudo_plastic
25,612779.3983336745,seasonal_calving_id_1_1975_2025.nc,0.0001139795818781401,MAR3.9_HadGEM2-ES_rcp85_ocean_1960-2100_v4.nc,MARv3.14-monthly-ERA5-1975_2023.nc,0.00024210067337394125,1.0984427248561994,0.35920153720280024,2.395732110622075,1.9594067,3.278622,0.8797844,0.014977138,6.7378106,43.672947,-459.10556,356.9815,50,given_smb,false,routing,routing,th,pism_g450m_frontretreat_calfin_1972_2019.nc,pseudo_plastic
26,544711.6933258433,seasonal_calving_id_6_1975_2025.nc,0.00011772996030172956,MAR3.9_NorESM1-M_rcp85_ocean_1960-2100_v4.nc,DMI-HIRHAM5_ERA_1975_2021_EPSG3413_4500M_MM.nc,0.0003412370140976904,1.609692006471705,0.539073527650689,2.0884813580257626,2.5348895,3.2916408,0.8004009,0.018080145,7.128076,42.8601,-300.3981,92.74017,50,given_smb,false,routing,routing,th,pism_g450m_frontretreat_calfin_1972_2019.nc,pseudo_plastic
27,571685.2454256035,seasonal_calving_id_4_1975_2025.nc,9.476614429922062e-05,MAR3.9_NorESM1-M_rcp85_ocean_1960-2100_v4.nc,DMI-HIRHAM5_ERA_1975_2021_EPSG3413_4500M_MM.nc,0.0003306046241951875,1.646455162927651,0.4817799368369253,2.7368821535913175,2.388059,3.2914834,0.7561373,0.017383756,7.483696,43.42715,-332.52103,271.07635,50,given_smb,false,routing,routing,th,pism_g450m_frontretreat_calfin_1972_2019.nc,pseudo_plastic
28,380934.56474799156,seasonal_calving_id_2_1975_2025.nc,0.00012475703855333365,MAR3.9_CNRM-CM6_ssp126_ocean_1960-2100_v4.nc,MARv3.14-monthly-ERA5-1975_2023.nc,0.00030931797283810346,1.3540634062737518,0.5795958473251592,1.897524189157985,2.87454,3.2360625,0.7097625,0.016240975,6.6722984,42.531506,-408.9323,199.73631,50,given_smb,false,routing,routing,th,pism_g450m_frontretreat_calfin_1972_2019.nc,pseudo_plastic
29,541393.9994514476,seasonal_calving_id_3_1975_2025.nc,8.330888093513976e-05,MAR3.9_CNRM-ESM2_ssp585_ocean_1960-2100_v4.nc,DMI-HIRHAM5_ERA_1975_2021_EPSG3413_4500M_MM.nc,0.00032173424634869346,1.0574404057105693,0.4631093837242878,2.1055733987570076,2.7667086,3.3597963,0.75421053,0.017868008,6.8682704,44.717888,-455.47952,50.396183,50,given_smb,false,routing,routing,th,pism_g450m_frontretreat_calfin_1972_2019.nc,pseudo_plastic
30,517960.51798811555,seasonal_calving_id_5_1975_2025.nc,8.451481924767049e-05,MAR3.9_ACCESS1-3_rcp85_ocean_1960-2100_v4.nc,DMI-HIRHAM5_ERA_1975_2021_EPSG3413_4500M_MM.nc,0.0003442385176511164,1.513846836655826,0.4142723040337667,2.3158374225958815,2.5964305,3.323105,0.78390175,0.019024402,12.191181,44.456604,-217.27577,347.5778,50,given_smb,false,routing,routing,th,pism_g450m_frontretreat_calfin_1972_2019.nc,pseudo_plastic
31,457252.8844092861,seasonal_calving_id_4_1975_2025.nc,9.671496519047166e-05,MAR3.9_UKESM1-CM6_ssp585_ocean_1960-2100_v4.nc,DMI-HIRHAM5_ERA_1975_2021_EPSG3413_4500M_MM.nc,0.00024334683404931334,1.380727945657259,0.4546825280662642,2.1012221931561617,2.823158,3.3236141,0.69830185,0.021671925,9.485097,44.81599,-294.15753,120.78878,50,given_smb,false,routing,routing,th,pism_g450m_frontretreat_calfin_1972_2019.nc,pseudo_plastic
32,553626.3327826797,seasonal_calving_id_3_1975_2025.nc,9.976948134768179e-05,MAR3.9_IPSL-CM5-MR_rcp85_ocean_1960-2100_v4.nc,DMI-HIRHAM5_ERA_1975_2021_EPSG3413_4500M_MM.nc,0.00035935142852551243,1.001170285766946,0.5431783877181562,1.3791817577732535,2.3576386,3.3640633,0.84867096,0.012942676,8.756297,42.772305,-394.30856,88.09612,50,given_smb,false,routing,routing,th,pism_g450m_frontretreat_calfin_1972_2019.nc,pseudo_plastic
33,642999.6068089276,seasonal_calving_id_4_1975_2025.nc,0.00011609505844404122,MAR3.9_CNRM-CM6_ssp126_ocean_1960-2100_v4.nc,DMI-HIRHAM5_ERA_1975_2021_EPSG3413_4500M_MM.nc,0.0002975273103594206,1.564581308854705,0.43224297966740244,1.9366172836595639,2.6346047,3.3104296,0.67115897,0.015534629,7.4145713,44.058628,-477.3491,105.63588,50,given_smb,false,routing,routing,th,pism_g450m_frontretreat_calfin_1972_2019.nc,pseudo_plastic
34,623349.7345784511,seasonal_calving_id_6_1975_2025.nc,0.00012046993160995143,MAR3.9_IPSL-CM5-MR_rcp85_ocean_1960-2100_v4.nc,DMI-HIRHAM5_ERA_1975_2021_EPSG3413_4500M_MM.nc,0.00032369526854465747,1.4200120935352594,0.5122691251467875,2.228024826329845,2.8841612,3.299649,0.68365747,0.014721502,7.8575444,44.046803,-567.1132,292.42715,50,given_smb,false,routing,routing,th,pism_g450m_frontretreat_calfin_1972_2019.nc,pseudo_plastic
35,491788.26391827053,seasonal_calving_id_0_1975_2025.nc,9.760552385469809e-05,MAR3.9_MIROC-ESM-CHEM_rcp26_ocean_1960-2100_v4.nc,MARv3.14-monthly-ERA5-1975_2023.nc,0.00031469082037860995,1.5716665107797718,0.47932814034780796,2.291189498067917,2.6304603,3.2985883,0.71260434,0.01714211,7.0740595,42.762897,-436.0698,209.51396,50,given_smb,false,routing,routing,th,pism_g450m_frontretreat_calfin_1972_2019.nc,pseudo_plastic
36,363583.39227639575,seasonal_calving_id_3_1975_2025.nc,0.00011286357247105593,MAR3.9_MIROC-ESM-CHEM_rcp85_ocean_1960-2100_v4.nc,DMI-HIRHAM5_ERA_1975_2021_EPSG3413_4500M_MM.nc,0.000289092868963734,1.05104570289157,0.32176750473839594,1.204384875801231,2.9737227,3.3660657,0.86613494,0.018369054,7.7698464,41.828056,-374.46164,146.0785,50,given_smb,false,routing,routing,th,pism_g450m_frontretreat_calfin_1972_2019.nc,pseudo_plastic
37,561829.5218442417,seasonal_calving_id_1_1975_2025.nc,8.112441523855233e-05,MAR3.9_HadGEM2-ES_rcp85_ocean_1960-2100_v4.nc,DMI-HIRHAM5_ERA_1975_2021_EPSG3413_4500M_MM.nc,0.0003078626471864043,1.5172741717676819,0.30217640062270984,2.3869239053026376,2.8393784,3.3853455,0.7302082,0.018984998,7.323978,40.203274,-448.2299,125.75005,50,given_smb,false,routing,routing,th,pism_g450m_frontretreat_calfin_1972_2019.nc,pseudo_plastic
38,422799.2147701819,seasonal_calving_id_0_1975_2025.nc,0.00012301978474342422,MAR3.9_IPSL-CM5-MR_rcp85_ocean_1960-2100_v4.nc,MARv3.14-monthly-ERA5-1975_2023.nc,0.00026075323883149545,1.1360935781423767,0.6334090628650781,2.5342903684500238,2.4556918,3.191133,0.62526786,0.014774397,7.538161,42.82051,-395.39456,105.73717,50,given_smb,false,routing,routing,th,pism_g450m_frontretreat_calfin_1972_2019.nc,pseudo_plastic
39,403999.7622041225,seasonal_calving_id_4_1975_2025.nc,0.00012685233870941403,MAR3.9_UKESM1-CM6_ssp585_ocean_1960-2100_v4.nc,DMI-HIRHAM5_ERA_1975_2021_EPSG3413_4500M_MM.nc,0.00035003830018972144,1.5994329189161958,0.38053746274232575,1.7850135793585968,2.894978,3.327909,0.8036699,0.02055558,10.724275,41.424194,-424.96597,540.8266,50,given_smb,false,routing,routing,th,pism_g450m_frontretreat_calfin_1972_2019.nc,pseudo_plastic
40,471293.3462873847,seasonal_calving_id_1_1975_2025.nc,0.00010243642014715373,MAR3.9_NorESM1-M_rcp85_ocean_1960-2100_v4.nc,DMI-HIRHAM5_ERA_1975_2021_EPSG3413_4500M_MM.nc,0.0003301863887235915,1.2922973850208692,0.6079213343129877,2.264404146277397,2.9126363,3.300752,0.87959146,0.024063502,8.664341,40.46768,-65.34132,218.3171,50,given_smb,false,routing,routing,th,pism_g450m_frontretreat_calfin_1972_2019.nc,pseudo_plastic
41,642032.7067784462,seasonal_calving_id_6_1975_2025.nc,8.082474202687388e-05,MAR3.9_IPSL-CM5-MR_rcp85_ocean_1960-2100_v4.nc,MARv3.14-monthly-ERA5-1975_2023.nc,0.00031029218364152244,1.506631921139007,0.4946646608465787,1.6165239461377012,2.8662052,3.3129046,0.6973457,0.024486547,5.3458757,40.66023,-354.0425,347.92365,50,given_smb,false,routing,routing,th,pism_g450m_frontretreat_calfin_1972_2019.nc,pseudo_plastic
42,489782.4311538611,seasonal_calving_id_3_1975_2025.nc,0.0001264201387185169,MAR3.9_IPSL-CM5-MR_rcp85_ocean_1960-2100_v4.nc,MARv3.14-monthly-ERA5-1975_2023.nc,0.0002674038122054448,1.4446461326362454,0.3846306045391544,2.058119906388485,3.0949454,3.271434,0.63750416,0.017844861,5.999184,43.749004,-472.49823,62.44033,50,given_smb,false,routing,routing,th,pism_g450m_frontretreat_calfin_1972_2019.nc,pseudo_plastic
43,567560.0959606606,seasonal_calving_id_4_1975_2025.nc,0.00012787406036929896,MAR3.9_CNRM-CM6_ssp585_ocean_1960-2100_v4.nc,MARv3.14-monthly-ERA5-1975_2023.nc,0.00035606988705908524,1.2672661190340508,0.4609720156723493,1.3076534261419184,2.812297,3.282149,0.7751106,0.020567419,6.2800455,43.402496,-372.07535,368.76376,50,given_smb,false,routing,routing,th,pism_g450m_frontretreat_calfin_1972_2019.nc,pseudo_plastic
44,405429.91593471076,seasonal_calving_id_1_1975_2025.nc,0.00013595851506765605,MAR3.9_CNRM-CM6_ssp126_ocean_1960-2100_v4.nc,DMI-HIRHAM5_ERA_1975_2021_EPSG3413_4500M_MM.nc,0.000282915789667215,1.4937292710250227,0.5410212103171621,1.6010311512100794,2.9808123,3.3343887,0.8052646,0.020022804,7.9754314,42.427876,-228.33128,189.7568,50,given_smb,false,routing,routing,th,pism_g450m_frontretreat_calfin_1972_2019.nc,pseudo_plastic
45,598704.0979183725,seasonal_calving_id_6_1975_2025.nc,0.00011239757828834327,MAR3.9_IPSL-CM5-MR_rcp85_ocean_1960-2100_v4.nc,DMI-HIRHAM5_ERA_1975_2021_EPSG3413_4500M_MM.nc,0.00033438867578787566,1.0117465756586466,0.4044565572741877,1.6534102755686686,2.5356448,3.3601627,0.78537846,0.017479332,6.5091114,41.09778,-548.463,198.20801,50,given_smb,false,routing,routing,th,pism_g450m_frontretreat_calfin_1972_2019.nc,pseudo_plastic
46,510183.55324535654,seasonal_calving_id_3_1975_2025.nc,0.00011873652414975887,MAR3.9_CNRM-CM6_ssp126_ocean_1960-2100_v4.nc,MARv3.14-monthly-ERA5-1975_2023.nc,0.00035176151545454853,1.2864212580861354,0.3163357600120042,1.4739155946870879,2.631723,3.3025105,0.86032456,0.018148476,6.6242065,43.949528,-316.46014,117.120926,50,given_smb,false,routing,routing,th,pism_g450m_frontretreat_calfin_1972_2019.nc,pseudo_plastic
47,408254.92257059325,seasonal_calving_id_1_1975_2025.nc,9.516178488238948e-05,MAR3.9_CNRM-CM6_ssp585_ocean_1960-2100_v4.nc,DMI-HIRHAM5_ERA_1975_2021_EPSG3413_4500M_MM.nc,0.00024766620107311276,1.5008553482630813,0.6146650418611412,1.9746008641534811,2.9870498,3.2863169,0.78769195,0.021109506,6.1560464,43.372833,-376.40823,319.18442,50,given_smb,false,routing,routing,th,pism_g450m_frontretreat_calfin_1972_2019.nc,pseudo_plastic
48,599674.653817625,seasonal_calving_id_6_1975_2025.nc,0.00013203495211477003,MAR3.9_IPSL-CM5-MR_rcp85_ocean_1960-2100_v4.nc,DMI-HIRHAM5_ERA_1975_2021_EPSG3413_4500M_MM.nc,0.0002724718743451598,1.1495239129986903,0.6315617191123415,2.4950633193765563,2.841408,3.3355122,0.8117562,0.020918194,10.673631,42.891376,-194.62204,291.88632,50,given_smb,false,routing,routing,th,pism_g450m_frontretreat_calfin_1972_2019.nc,pseudo_plastic
49,362263.24460133293,seasonal_calving_id_0_1975_2025.nc,0.00012139263316699269,MAR3.9_CNRM-CM6_ssp585_ocean_1960-2100_v4.nc,MARv3.14-monthly-ERA5-1975_2023.nc,0.00034793133116211195,1.2474576453222432,0.6160274988559971,1.3632233341523734,2.011704,3.2822452,0.63702255,0.0155130755,8.663368,42.726837,-390.46268,288.19415,50,given_smb,false,routing,routing,th,pism_g450m_frontretreat_calfin_1972_2019.nc,pseudo_plastic
50,579977.0676010931,seasonal_calving_id_4_1975_2025.nc,0.0001434719997227031,MAR3.9_UKESM1-CM6_ssp585_ocean_1960-2100_v4.nc,DMI-HIRHAM5_ERA_1975_2021_EPSG3413_4500M_MM.nc,0.00024113510188115058,1.2408498642819932,0.5544197634187615,1.7435864541848316,2.1924026,3.251653,0.8147336,0.016455326,5.0946364,43.47395,-394.34802,217.76764,50,given_smb,false,routing,routing,th,pism_g450m_frontretreat_calfin_1972_2019.nc,pseudo_plastic
51,495907.3454681495,seasonal_calving_id_2_1975_2025.nc,7.67373461306238e-05,MAR3.9_HadGEM2-ES_rcp85_ocean_1960-2100_v4.nc,MARv3.14-monthly-ERA5-1975_2023.nc,0.00029503054808148335,1.3623175487184702,0.6389871910462999,2.0803246659121815,2.849666,3.348711,0.6071185,0.017561046,7.746907,43.721542,-429.46896,159.54898,50,given_smb,false,routing,routing,th,pism_g450m_frontretreat_calfin_1972_2019.nc,pseudo_plastic
52,462494.6345835084,seasonal_calving_id_6_1975_2025.nc,0.00014419386165244572,MAR3.9_CNRM-CM6_ssp585_ocean_1960-2100_v4.nc,DMI-HIRHAM5_ERA_1975_2021_EPSG3413_4500M_MM.nc,0.00030884506847198424,1.3336385076304702,0.4760254829248877,2.4806240084338,3.1892512,3.3961532,0.7914797,0.02187473,8.755345,41.798546,-250.68349,85.779045,50,given_smb,false,routing,routing,th,pism_g450m_frontretreat_calfin_1972_2019.nc,pseudo_plastic
53,443692.03634620406,seasonal_calving_id_1_1975_2025.nc,0.00010709182358826654,MAR3.9_CSIRO-Mk3.6_rcp85_ocean_1960-2100_v4.nc,DMI-HIRHAM5_ERA_1975_2021_EPSG3413_4500M_MM.nc,0.00024290407120103208,1.5931005265177292,0.328907079648799,2.1541031107820676,2.2845743,3.3565361,0.76715034,0.014905818,7.6301303,43.742172,-514.756,272.31094,50,given_smb,false,routing,routing,th,pism_g450m_frontretreat_calfin_1972_2019.nc,pseudo_plastic
54,586012.9166422237,seasonal_calving_id_1_1975_2025.nc,0.00011654757255195891,MAR3.9_CNRM-CM6_ssp585_ocean_1960-2100_v4.nc,MARv3.14-monthly-ERA5-1975_2023.nc,0.00034922763968370674,1.5197062551311222,0.6821700652078246,2.3628832124141343,3.0526571,3.3571172,0.9330711,0.022908935,8.637395,41.88293,-349.39542,322.63043,50,given_smb,false,routing,routing,th,pism_g450m_frontretreat_calfin_1972_2019.nc,pseudo_plastic
55,633379.8236606478,seasonal_calving_id_2_1975_2025.nc,0.00010966898238517067,MAR3.9_ACCESS1-3_rcp85_ocean_1960-2100_v4.nc,MARv3.14-monthly-ERA5-1975_2023.nc,0.00026827040840655595,1.4588148164683001,0.3790445041415381,1.6997019167288665,2.0388436,3.2944949,0.6916457,0.01918417,9.872545,42.06684,-337.3376,443.92224,50,given_smb,false,routing,routing,th,pism_g450m_frontretreat_calfin_1972_2019.nc,pseudo_plastic
56,440726.3072334776,seasonal_calving_id_2_1975_2025.nc,0.0001324026496849352,MAR3.9_CNRM-CM6_ssp585_ocean_1960-2100_v4.nc,MARv3.14-monthly-ERA5-1975_2023.nc,0.0002752071362228959,1.2230375179164843,0.6792390838324949,1.6414258140893168,2.4322872,3.289811,0.5924861,0.019122684,6.9399405,40.680115,-396.79132,264.018,50,given_smb,false,routing,routing,th,pism_g450m_frontretreat_calfin_1972_2019.nc,pseudo_plastic
57,500588.735436429,seasonal_calving_id_5_1975_2025.nc,0.00010340953722315734,MAR3.9_MIROC-ESM-CHEM_rcp85_ocean_1960-2100_v4.nc,MARv3.14-monthly-ERA5-1975_2023.nc,0.0003187779300376207,1.2323709884001235,0.6707890551597682,1.8431227203236022,2.5279498,3.3470104,0.7430246,0.021519033,5.218762,42.952515,-458.81018,370.21115,50,given_smb,false,routing,routing,th,pism_g450m_frontretreat_calfin_1972_2019.nc,pseudo_plastic
58,371536.17088814586,seasonal_calving_id_4_1975_2025.nc,0.0001318657117831085,MAR3.9_MIROC-ESM-CHEM_rcp26_ocean_1960-2100_v4.nc,MARv3.14-monthly-ERA5-1975_2023.nc,0.00030456445413366346,1.5966449396512137,0.6205458431722617,1.341503496837253,2.4448152,3.2714694,0.8156569,0.020107972,5.6172585,44.126564,-291.939,296.4292,50,given_smb,false,routing,routing,th,pism_g450m_frontretreat_calfin_1972_2019.nc,pseudo_plastic
59,645640.8619434952,seasonal_calving_id_0_1975_2025.nc,0.00014766172094805873,MAR3.9_CNRM-CM6_ssp585_ocean_1960-2100_v4.nc,DMI-HIRHAM5_ERA_1975_2021_EPSG3413_4500M_MM.nc,0.0002487073986424526,1.207729934545109,0.5213712580183884,1.5747613094397832,3.3152897,3.3750093,0.62537986,0.019501299,10.527282,44.199017,-361.35287,299.07513,50,given_smb,false,routing,routing,th,pism_g450m_frontretreat_calfin_1972_2019.nc,pseudo_plastic
60,559991.6455307845,seasonal_calving_id_1_1975_2025.nc,8.871545030345688e-05,MAR3.9_CNRM-CM6_ssp585_ocean_1960-2100_v4.nc,MARv3.14-monthly-ERA5-1975_2023.nc,0.00031740368247086054,1.6729091873213873,0.6945075914859289,2.653766460407717,3.0356383,3.275767,0.75037044,0.015288933,5.9691653,43.59754,-418.62372,81.724915,50,given_smb,false,routing,routing,th,pism_g450m_frontretreat_calfin_1972_2019.nc,pseudo_plastic
61,420684.96001670964,seasonal_calving_id_5_1975_2025.nc,0.00011478469452251265,MAR3.9_HadGEM2-ES_rcp85_ocean_1960-2100_v4.nc,DMI-HIRHAM5_ERA_1975_2021_EPSG3413_4500M_MM.nc,0.00028592722862040993,1.562396542016422,0.44682596187321233,1.7561602309575763,2.4525886,3.3652365,0.73502135,0.015154333,7.721436,42.16748,-510.98172,141.52496,50,given_smb,false,routing,routing,th,pism_g450m_frontretreat_calfin_1972_2019.nc,pseudo_plastic
62,406432.6253355225,seasonal_calving_id_3_1975_2025.nc,0.0001145895201372857,MAR3.9_CNRM-CM6_ssp126_ocean_1960-2100_v4.nc,DMI-HIRHAM5_ERA_1975_2021_EPSG3413_4500M_MM.nc,0.0003382579773770861,1.679723303192967,0.3408859006162592,1.2439416628760456,2.9798682,3.3235545,0.87051797,0.021922143,6.458846,40.786533,-183.34044,218.69617,50,given_smb,false,routing,routing,th,pism_g450m_frontretreat_calfin_1972_2019.nc,pseudo_plastic
63,636576.1561511438,seasonal_calving_id_2_1975_2025.nc,0.00011674441398065591,MAR3.9_ACCESS1-3_rcp85_ocean_1960-2100_v4.nc,MARv3.14-monthly-ERA5-1975_2023.nc,0.00035358851220584995,1.0681669093813877,0.6745000147987938,2.7015030089845125,2.7425907,3.2928445,0.8455924,0.022713536,5.259526,42.54666,-278.11572,411.90845,50,given_smb,false,routing,routing,th,pism_g450m_frontretreat_calfin_1972_2019.nc,pseudo_plastic
64,556479.6342550559,seasonal_calving_id_3_1975_2025.nc,0.00013676425858107083,MAR3.9_MIROC-ESM-CHEM_rcp85_ocean_1960-2100_v4.nc,DMI-HIRHAM5_ERA_1975_2021_EPSG3413_4500M_MM.nc,0.00032118811708324,1.4333244912526792,0.5187950511475182,2.7759206028851913,2.7575119,3.298556,0.8752312,0.019396381,7.0889263,41.487152,-337.05035,350.00278,50,given_smb,false,routing,routing,th,pism_g450m_frontretreat_calfin_1972_2019.nc,pseudo_plastic
65,373090.28135777445,seasonal_calving_id_4_1975_2025.nc,0.0001387504522315437,MAR3.9_CNRM-ESM2_ssp585_ocean_1960-2100_v4.nc,MARv3.14-monthly-ERA5-1975_2023.nc,0.0003424252205458636,1.1528431039560325,0.4826730356911386,2.029340399421292,2.7632587,3.337401,0.7465953,0.018238423,12.312624,44.464554,-286.8821,210.63844,50,given_smb,false,routing,routing,th,pism_g450m_frontretreat_calfin_1972_2019.nc,pseudo_plastic
66,425079.40835141076,seasonal_calving_id_5_1975_2025.nc,0.00013570331190377737,MAR3.9_HadGEM2-ES_rcp85_ocean_1960-2100_v4.nc,DMI-HIRHAM5_ERA_1975_2021_EPSG3413_4500M_MM.nc,0.0002933234129257775,1.4184060293864587,0.6896161437686135,2.4423916805070127,2.024599,3.3440936,0.7592115,0.017290188,5.9069605,43.254257,-549.4789,350.57455,50,given_smb,false,routing,routing,th,pism_g450m_frontretreat_calfin_1972_2019.nc,pseudo_plastic
67,486433.1649247103,seasonal_calving_id_1_1975_2025.nc,9.227721565278881e-05,MAR3.9_NorESM1-M_rcp85_ocean_1960-2100_v4.nc,MARv3.14-monthly-ERA5-1975_2023.nc,0.00028481695546726257,1.2435963399459544,0.4037681283357365,2.7870327514793134,2.9112184,3.3375401,0.8255963,0.024451453,5.348892,40.922344,-308.84354,325.2746,50,given_smb,false,routing,routing,th,pism_g450m_frontretreat_calfin_1972_2019.nc,pseudo_plastic
68,510697.9029621779,seasonal_calving_id_0_1975_2025.nc,0.00013853308313051537,MAR3.9_HadGEM2-ES_rcp85_ocean_1960-2100_v4.nc,MARv3.14-monthly-ERA5-1975_2023.nc,0.000329231712579675,1.0908155249142581,0.5471179212662728,2.0651379231708162,2.4937696,3.242812,0.8225236,0.016761959,8.380523,42.6718,-380.11047,441.42432,50,given_smb,false,routing,routing,th,pism_g450m_frontretreat_calfin_1972_2019.nc,pseudo_plastic
69,617254.6204190794,seasonal_calving_id_5_1975_2025.nc,0.00013375666439495237,MAR3.9_NorESM1-M_rcp85_ocean_1960-2100_v4.nc,MARv3.14-monthly-ERA5-1975_2023.nc,0.00024501063466185436,1.2828870325977455,0.6868063787745202,2.3548972042971537,2.7375534,3.3309228,0.8542762,0.02273837,5.3448606,43.354042,-454.24078,584.14606,50,given_smb,false,routing,routing,th,pism_g450m_frontretreat_calfin_1972_2019.nc,pseudo_plastic
70,635810.2833134569,seasonal_calving_id_1_1975_2025.nc,0.00013798249209361502,MAR3.9_NorESM1-M_rcp85_ocean_1960-2100_v4.nc,DMI-HIRHAM5_ERA_1975_2021_EPSG3413_4500M_MM.nc,0.0002865780770458679,1.5324758364024977,0.344632383176404,2.1940663357057577,2.7205813,3.2237935,0.5832379,0.017974488,9.612411,42.226418,-271.34958,88.34037,50,given_smb,false,routing,routing,th,pism_g450m_frontretreat_calfin_1972_2019.nc,pseudo_plastic
71,575607.9499781539,seasonal_calving_id_5_1975_2025.nc,7.513569563958147e-05,MAR3.9_UKESM1-CM6_ssp585_ocean_1960-2100_v4.nc,MARv3.14-monthly-ERA5-1975_2023.nc,0.00032772929276071,1.0633509834239234,0.5821793065489418,1.497292539503959,2.4382706,3.3737059,0.8430946,0.014873203,8.767912,44.754036,-310.8487,130.82904,50,given_smb,false,routing,routing,th,pism_g450m_frontretreat_calfin_1972_2019.nc,pseudo_plastic
72,494710.0715368759,seasonal_calving_id_5_1975_2025.nc,0.0001053387450788389,MAR3.9_ACCESS1-3_rcp85_ocean_1960-2100_v4.nc,MARv3.14-monthly-ERA5-1975_2023.nc,0.00028998649900827014,1.31088342672232,0.5664423346328589,2.491974405753724,2.595273,3.3526483,0.7767389,0.024836343,7.1467915,43.931557,-444.76013,769.1202,50,given_smb,false,routing,routing,th,pism_g450m_frontretreat_calfin_1972_2019.nc,pseudo_plastic
73,526967.7053146998,seasonal_calving_id_3_1975_2025.nc,0.00011123794639811816,MAR3.9_CNRM-CM6_ssp126_ocean_1960-2100_v4.nc,MARv3.14-monthly-ERA5-1975_2023.nc,0.0003316997088317482,1.0180911575033493,0.6859061913789757,1.4176526333494663,2.1151557,3.3068242,0.89607346,0.018684624,5.5633817,42.217556,-340.65118,247.19856,50,given_smb,false,routing,routing,th,pism_g450m_frontretreat_calfin_1972_2019.nc,pseudo_plastic
74,416053.4748992385,seasonal_calving_id_4_1975_2025.nc,8.959705530772333e-05,MAR3.9_IPSL-CM5-MR_rcp85_ocean_1960-2100_v4.nc,DMI-HIRHAM5_ERA_1975_2021_EPSG3413_4500M_MM.nc,0.0003136945738747999,1.0871710678002195,0.426682131702932,2.280797301030717,3.1152687,3.2139788,0.65924174,0.02150841,6.3627567,43.648266,-360.65292,272.90842,50,given_smb,false,routing,routing,th,pism_g450m_frontretreat_calfin_1972_2019.nc,pseudo_plastic
75,581274.958561508,seasonal_calving_id_3_1975_2025.nc,0.00010499694596432163,MAR3.9_MIROC-ESM-CHEM_rcp26_ocean_1960-2100_v4.nc,MARv3.14-monthly-ERA5-1975_2023.nc,0.00028048260423936197,1.4438332625862924,0.5326626562286364,2.5416316493723317,2.4941201,3.260764,0.66095585,0.016789041,6.7021503,40.829823,-485.35254,135.42587,50,given_smb,false,routing,routing,th,pism_g450m_frontretreat_calfin_1972_2019.nc,pseudo_plastic
76,473237.9621603824,seasonal_calving_id_0_1975_2025.nc,7.833591811490536e-05,MAR3.9_CNRM-ESM2_ssp585_ocean_1960-2100_v4.nc,DMI-HIRHAM5_ERA_1975_2021_EPSG3413_4500M_MM.nc,0.00026762308101513165,1.4545108028766278,0.4582447396981319,2.6849152942674297,2.3980815,3.2949502,0.85593075,0.019775141,5.6729,43.377758,-408.8618,304.14944,50,given_smb,false,routing,routing,th,pism_g450m_frontretreat_calfin_1972_2019.nc,pseudo_plastic
77,514751.0375929029,seasonal_calving_id_1_1975_2025.nc,9.158641111243931e-05,MAR3.9_CNRM-CM6_ssp126_ocean_1960-2100_v4.nc,DMI-HIRHAM5_ERA_1975_2021_EPSG3413_4500M_MM.nc,0.000257526333864626,1.341235143255337,0.41788499629944165,1.771396033342537,2.7599452,3.3125901,0.71319085,0.026500309,7.4545774,40.82034,-295.41437,531.66345,50,given_smb,false,routing,routing,th,pism_g450m_frontretreat_calfin_1972_2019.nc,pseudo_plastic
78,532190.8280714462,seasonal_calving_id_5_1975_2025.nc,7.938796412803108e-05,MAR3.9_UKESM1-CM6_ssp585_ocean_1960-2100_v4.nc,MARv3.14-monthly-ERA5-1975_2023.nc,0.0002644956105905444,1.6409036929654022,0.5316384421192494,1.3673305225433188,2.7695363,3.3925974,0.79044765,0.022519855,6.090604,40.386593,-378.55823,405.4611,50,given_smb,false,routing,routing,th,pism_g450m_frontretreat_calfin_1972_2019.nc,pseudo_plastic
79,608623.1100218112,seasonal_calving_id_0_1975_2025.nc,8.578148001133688e-05,MAR3.9_UKESM1-CM6_ssp585_ocean_1960-2100_v4.nc,DMI-HIRHAM5_ERA_1975_2021_EPSG3413_4500M_MM.nc,0.000320776358621069,1.1105056704450056,0.3623795745217452,2.115596426415773,2.6139538,3.248515,0.79342306,0.0188771,5.6738143,44.073334,-415.64108,371.41742,50,given_smb,false,routing,routing,th,pism_g450m_frontretreat_calfin_1972_2019.nc,pseudo_plastic
80,374093.25261137297,seasonal_calving_id_5_1975_2025.nc,0.0001201952971117197,MAR3.9_IPSL-CM5-MR_rcp85_ocean_1960-2100_v4.nc,MARv3.14-monthly-ERA5-1975_2023.nc,0.00027152726543434495,1.624160546782619,0.33733008601003966,1.3886231195081495,2.9814098,3.2811475,0.66903746,0.019909807,7.612877,42.96046,-422.25647,391.2185,50,given_smb,false,routing,routing,th,pism_g450m_frontretreat_calfin_1972_2019.nc,pseudo_plastic
81,601186.1875670919,seasonal_calving_id_2_1975_2025.nc,0.00012430231132036105,MAR3.9_CSIRO-Mk3.6_rcp85_ocean_1960-2100_v4.nc,DMI-HIRHAM5_ERA_1975_2021_EPSG3413_4500M_MM.nc,0.0002696633861438582,1.1079137053924182,0.6034769651916969,1.9642054221982446,2.9760025,3.2995453,0.6117536,0.024084395,6.5468507,41.893234,-361.2274,259.93768,50,given_smb,false,routing,routing,th,pism_g450m_frontretreat_calfin_1972_2019.nc,pseudo_plastic
82,445803.1876024166,seasonal_calving_id_3_1975_2025.nc,0.00013287263038238046,MAR3.9_UKESM1-CM6_ssp585_ocean_1960-2100_v4.nc,DMI-HIRHAM5_ERA_1975_2021_EPSG3413_4500M_MM.nc,0.00034515900395040315,1.22040414733405,0.5818916298822777,1.2731701692808237,2.8955932,3.3003013,0.76534456,0.01996094,10.531185,44.034096,-324.89713,324.88422,50,given_smb,false,routing,routing,th,pism_g450m_frontretreat_calfin_1972_2019.nc,pseudo_plastic
83,482788.65968716715,seasonal_calving_id_4_1975_2025.nc,0.00010651061803698034,MAR3.9_CSIRO-Mk3.6_rcp85_ocean_1960-2100_v4.nc,MARv3.14-monthly-ERA5-1975_2023.nc,0.0003242713070480174,1.0267257021258578,0.33850696239693806,2.4654625890103556,2.3668964,3.3225882,0.6773408,0.022417033,9.180906,40.08763,-488.48697,732.7732,50,given_smb,false,routing,routing,th,pism_g450m_frontretreat_calfin_1972_2019.nc,pseudo_plastic
84,565023.4839308173,seasonal_calving_id_4_1975_2025.nc,0.00012202650407589504,MAR3.9_CSIRO-Mk3.6_rcp85_ocean_1960-2100_v4.nc,DMI-HIRHAM5_ERA_1975_2021_EPSG3413_4500M_MM.nc,0.0003387315538522293,1.0951998413120436,0.6972215146898415,1.4884760623256474,2.9575047,3.3476255,0.75323117,0.020856554,10.733917,44.13639,-226.6326,190.46191,50,given_smb,false,routing,routing,th,pism_g450m_frontretreat_calfin_1972_2019.nc,pseudo_plastic
85,359175.5188124981,seasonal_calving_id_3_1975_2025.nc,8.280250763974942e-05,MAR3.9_ACCESS1-3_rcp85_ocean_1960-2100_v4.nc,MARv3.14-monthly-ERA5-1975_2023.nc,0.00025720082348036427,1.3157420162358515,0.39418864898330896,1.9210694722350627,2.2284176,3.3390796,0.67330825,0.016052695,8.7932205,43.345093,-470.8727,357.0678,50,given_smb,false,routing,routing,th,pism_g450m_frontretreat_calfin_1972_2019.nc,pseudo_plastic
86,368487.46414005,seasonal_calving_id_3_1975_2025.nc,0.00010994698201191255,MAR3.9_CNRM-CM6_ssp585_ocean_1960-2100_v4.nc,DMI-HIRHAM5_ERA_1975_2021_EPSG3413_4500M_MM.nc,0.00025132977093537555,1.0222395327555733,0.4084925684502303,1.8673859300860491,2.9317012,3.2445614,0.788587,0.023392625,6.6876416,41.84219,-227.7438,390.67773,50,given_smb,false,routing,routing,th,pism_g450m_frontretreat_calfin_1972_2019.nc,pseudo_plastic
87,415562.64743674576,seasonal_calving_id_5_1975_2025.nc,0.0001449194552479462,MAR3.9_HadGEM2-ES_rcp85_ocean_1960-2100_v4.nc,MARv3.14-monthly-ERA5-1975_2023.nc,0.00024825808311659814,1.4068035528425153,0.4884351980447599,2.2063022890301145,3.1089578,3.275535,0.5508002,0.020813277,11.615229,42.404037,-205.67445,72.32448,50,given_smb,false,routing,routing,th,pism_g450m_frontretreat_calfin_1972_2019.nc,pseudo_plastic
88,629401.0126898409,seasonal_calving_id_6_1975_2025.nc,9.954848923005025e-05,MAR3.9_UKESM1-CM6_ssp585_ocean_1960-2100_v4.nc,MARv3.14-monthly-ERA5-1975_2023.nc,0.00031234421526135116,1.264374782185497,0.3259891170520026,2.450256723591046,2.243416,3.3507845,0.8350201,0.017450867,6.6123915,41.287567,-382.52148,132.2957,50,given_smb,false,routing,routing,th,pism_g450m_frontretreat_calfin_1972_2019.nc,pseudo_plastic
89,554426.2902869359,seasonal_calving_id_4_1975_2025.nc,0.0001427966922990591,MAR3.9_NorESM1-M_rcp85_ocean_1960-2100_v4.nc,MARv3.14-monthly-ERA5-1975_2023.nc,0.00034649692673279755,1.169051960417109,0.5684313170076319,2.6253260693854905,2.416298,3.3101478,0.7521091,0.019228479,5.200524,41.55933,-453.3337,480.27435,50,given_smb,false,routing,routing,th,pism_g450m_frontretreat_calfin_1972_2019.nc,pseudo_plastic
90,596514.0720414808,seasonal_calving_id_4_1975_2025.nc,0.00013151179262678268,MAR3.9_IPSL-CM5-MR_rcp85_ocean_1960-2100_v4.nc,MARv3.14-monthly-ERA5-1975_2023.nc,0.0002943479044077372,1.6678555337099206,0.588236947483516,1.2513764631090738,2.7657402,3.3400805,0.78342855,0.016391955,9.8292055,44.742447,-312.12753,33.0433,50,given_smb,false,routing,routing,th,pism_g450m_frontretreat_calfin_1972_2019.nc,pseudo_plastic
91,418422.5333631886,seasonal_calving_id_0_1975_2025.nc,8.144533138909254e-05,MAR3.9_UKESM1-CM6_ssp585_ocean_1960-2100_v4.nc,DMI-HIRHAM5_ERA_1975_2021_EPSG3413_4500M_MM.nc,0.0003405549897198623,1.5441944187418035,0.46585784811210595,1.8992912134727669,2.703142,3.3484468,0.8158287,0.02162334,6.0114064,43.089825,-351.86862,297.93103,50,given_smb,false,routing,routing,th,pism_g450m_frontretreat_calfin_1972_2019.nc,pseudo_plastic
92,530116.0000121183,seasonal_calving_id_1_1975_2025.nc,0.00013019854560629196,MAR3.9_MIROC-ESM-CHEM_rcp26_ocean_1960-2100_v4.nc,DMI-HIRHAM5_ERA_1975_2021_EPSG3413_4500M_MM.nc,0.00034825967546150185,1.5359664511436795,0.5221143395918908,1.9264782799719247,2.029892,3.2183275,0.6848784,0.015627123,7.36226,41.51343,-387.2764,168.3684,50,given_smb,false,routing,routing,th,pism_g450m_frontretreat_calfin_1972_2019.nc,pseudo_plastic
93,518830.3183579318,seasonal_calving_id_1_1975_2025.nc,0.00012985854838334815,MAR3.9_NorESM1-M_rcp85_ocean_1960-2100_v4.nc,DMI-HIRHAM5_ERA_1975_2021_EPSG3413_4500M_MM.nc,0.00028714226505456494,1.3863396300197488,0.5353787760918842,1.2586185028513937,2.4070215,3.2970097,0.5546378,0.015515534,5.989851,43.4578,-607.9021,288.09967,50,given_smb,false,routing,routing,th,pism_g450m_frontretreat_calfin_1972_2019.nc,pseudo_plastic
94,468366.9176566162,seasonal_calving_id_3_1975_2025.nc,0.0001119276796476364,MAR3.9_UKESM1-CM6_ssp585_ocean_1960-2100_v4.nc,MARv3.14-monthly-ERA5-1975_2023.nc,0.0002553599278677777,1.6327572300972713,0.4563955000376571,2.128065531889188,2.8290653,3.3258913,0.64632386,0.027615793,6.0538287,43.161137,-332.00867,330.83636,50,given_smb,false,routing,routing,th,pism_g450m_frontretreat_calfin_1972_2019.nc,pseudo_plastic
95,590445.8511495574,seasonal_calving_id_4_1975_2025.nc,8.969521405674897e-05,MAR3.9_ACCESS1-3_rcp85_ocean_1960-2100_v4.nc,MARv3.14-monthly-ERA5-1975_2023.nc,0.00025983956107984897,1.173333306526539,0.32200762189405635,1.3173798280942408,2.011109,3.3156145,0.7240281,0.017864184,8.246444,40.464447,-312.5713,194.21143,50,given_smb,false,routing,routing,th,pism_g450m_frontretreat_calfin_1972_2019.nc,pseudo_plastic
96,367094.8812365949,seasonal_calving_id_6_1975_2025.nc,8.754008414135287e-05,MAR3.9_IPSL-CM5-MR_rcp85_ocean_1960-2100_v4.nc,DMI-HIRHAM5_ERA_1975_2021_EPSG3413_4500M_MM.nc,0.0003298164704397945,1.589224918556344,0.6689984821002888,2.4200999549767443,2.5156202,3.2435577,0.78949934,0.026495935,5.551563,43.300835,-345.14777,563.23175,50,given_smb,false,routing,routing,th,pism_g450m_frontretreat_calfin_1972_2019.nc,pseudo_plastic
97,414339.0196866484,seasonal_calving_id_5_1975_2025.nc,8.013373517357887e-05,MAR3.9_MIROC-ESM-CHEM_rcp26_ocean_1960-2100_v4.nc,MARv3.14-monthly-ERA5-1975_2023.nc,0.00025177722166923436,1.3364740415672967,0.5602750907695799,1.2886677835569247,2.6841393,3.2796798,0.80883074,0.018203346,6.2694287,43.553276,-357.8315,140.05266,50,given_smb,false,routing,routing,th,pism_g450m_frontretreat_calfin_1972_2019.nc,pseudo_plastic
98,593523.8242941936,seasonal_calving_id_6_1975_2025.nc,0.00013728117437506224,MAR3.9_MIROC-ESM-CHEM_rcp26_ocean_1960-2100_v4.nc,DMI-HIRHAM5_ERA_1975_2021_EPSG3413_4500M_MM.nc,0.00031677148256070546,1.2884235068214167,0.5112758144458814,1.1596184681435795,2.4945397,3.32544,0.7155172,0.01555853,9.178974,43.660534,-363.76218,148.49791,50,given_smb,false,routing,routing,th,pism_g450m_frontretreat_calfin_1972_2019.nc,pseudo_plastic
99,436502.3989917609,seasonal_calving_id_1_1975_2025.nc,0.00010448319178420594,MAR3.9_CNRM-CM6_ssp585_ocean_1960-2100_v4.nc,DMI-HIRHAM5_ERA_1975_2021_EPSG3413_4500M_MM.nc,0.0003226885969357456,1.212825218203998,0.605753540701597,2.2877230294149165,2.728102,3.2775326,0.76101565,0.018946566,7.824211,41.44967,-275.6594,301.4832,50,given_smb,false,routing,routing,th,pism_g450m_frontretreat_calfin_1972_2019.nc,pseudo_plastic
100,361039.03494382824,seasonal_calving_id_1_1975_2025.nc,0.0001287416817836187,MAR3.9_UKESM1-CM6_ssp585_ocean_1960-2100_v4.nc,DMI-HIRHAM5_ERA_1975_2021_EPSG3413_4500M_MM.nc,0.0002596206317868338,1.6530577580591241,0.6222235044246587,1.79964998404302,3.3349917,3.291335,0.6272762,0.023483237,8.935002,43.50924,-315.2542,383.65137,50,given_smb,false,routing,routing,th,pism_g450m_frontretreat_calfin_1972_2019.nc,pseudo_plastic
101,463605.1081031938,seasonal_calving_id_6_1975_2025.nc,0.00011832290244285518,MAR3.9_NorESM1-M_rcp85_ocean_1960-2100_v4.nc,MARv3.14-monthly-ERA5-1975_2023.nc,0.00027437647172550285,1.12547872403376,0.6495249895123767,1.9927372637942957,2.376408,3.3474665,0.8873571,0.020941634,5.5290728,42.84891,-245.7093,240.65822,50,given_smb,false,routing,routing,th,pism_g450m_frontretreat_calfin_1972_2019.nc,pseudo_plastic
102,453129.05810697447,seasonal_calving_id_4_1975_2025.nc,0.0001224138023444057,MAR3.9_ACCESS1-3_rcp85_ocean_1960-2100_v4.nc,MARv3.14-monthly-ERA5-1975_2023.nc,0.0003054949679953238,1.349511269780704,0.6190066594100414,1.6661631446823981,3.4351528,3.315924,0.6619491,0.018399896,8.6042185,43.42349,-378.8804,143.94107,50,given_smb,false,routing,routing,th,pism_g450m_frontretreat_calfin_1972_2019.nc,pseudo_plastic
103,352658.5208426881,seasonal_calving_id_0_1975_2025.nc,9.937241130626252e-05,MAR3.9_MIROC-ESM-CHEM_rcp26_ocean_1960-2100_v4.nc,MARv3.14-monthly-ERA5-1975_2023.nc,0.0002800359044499716,1.3681749566943502,0.5585090064577132,1.1276086057278625,2.5843608,3.3492694,0.7898352,0.017510762,7.2114196,42.852345,-349.53934,230.24844,50,given_smb,false,routing,routing,th,pism_g450m_frontretreat_calfin_1972_2019.nc,pseudo_plastic
104,420158.72532909614,seasonal_calving_id_3_1975_2025.nc,0.00010731076130817933,MAR3.9_CNRM-CM6_ssp585_ocean_1960-2100_v4.nc,DMI-HIRHAM5_ERA_1975_2021_EPSG3413_4500M_MM.nc,0.00030503783442631854,1.4106482173914874,0.5760566638868108,1.5124262892850129,2.1242092,3.3273969,0.84157014,0.015008347,5.890634,44.579548,-408.24445,189.02168,50,given_smb,false,routing,routing,th,pism_g450m_frontretreat_calfin_1972_2019.nc,pseudo_plastic
105,439589.0515649783,seasonal_calving_id_2_1975_2025.nc,7.545532559305646e-05,MAR3.9_CNRM-ESM2_ssp585_ocean_1960-2100_v4.nc,DMI-HIRHAM5_ERA_1975_2021_EPSG3413_4500M_MM.nc,0.0003321202217259995,1.403427482456348,0.3836326278313028,1.7717378505498342,1.896861,3.2831268,0.69031155,0.01564626,8.835007,40.96238,-402.12115,100.1901,50,given_smb,false,routing,routing,th,pism_g450m_frontretreat_calfin_1972_2019.nc,pseudo_plastic
106,465005.2913061976,seasonal_calving_id_5_1975_2025.nc,0.00011956593826834531,MAR3.9_CNRM-CM6_ssp126_ocean_1960-2100_v4.nc,DMI-HIRHAM5_ERA_1975_2021_EPSG3413_4500M_MM.nc,0.0002910225946189282,1.3294233623990337,0.6342337532646267,2.43150909030104,2.2107208,3.3200152,0.78855854,0.01666139,10.652109,43.50626,-294.7555,335.9158,50,given_smb,false,routing,routing,th,pism_g450m_frontretreat_calfin_1972_2019.nc,pseudo_plastic
107,382570.3317007066,seasonal_calving_id_1_1975_2025.nc,0.0001405658060060797,MAR3.9_HadGEM2-ES_rcp85_ocean_1960-2100_v4.nc,MARv3.14-monthly-ERA5-1975_2023.nc,0.0002984099419998164,1.3658322410326,0.5164473266109731,2.7130014921087415,2.3680346,3.3715355,0.795168,0.0127554415,9.2110195,44.146435,-394.96838,60.6716,50,given_smb,false,routing,routing,th,pism_g450m_frontretreat_calfin_1972_2019.nc,pseudo_plastic
108,453929.61112705537,seasonal_calving_id_2_1975_2025.nc,0.0001362219603965301,MAR3.9_HadGEM2-ES_rcp85_ocean_1960-2100_v4.nc,DMI-HIRHAM5_ERA_1975_2021_EPSG3413_4500M_MM.nc,0.0003001883033805254,1.3135137566713535,0.34749785091079594,2.666463610730423,2.2703722,3.3143394,0.62105596,0.0148543315,7.4623823,44.882362,-483.90692,161.29471,50,given_smb,false,routing,routing,th,pism_g450m_frontretreat_calfin_1972_2019.nc,pseudo_plastic
109,551970.3468369171,seasonal_calving_id_6_1975_2025.nc,0.00010616701351745682,MAR3.9_CSIRO-Mk3.6_rcp85_ocean_1960-2100_v4.nc,DMI-HIRHAM5_ERA_1975_2021_EPSG3413_4500M_MM.nc,0.00035263894551069237,1.5505425684332526,0.3748922715903471,2.6137564251033494,2.8066554,3.318818,0.5835911,0.024785183,5.5206194,42.94256,-520.34924,551.62286,50,given_smb,false,routing,routing,th,pism_g450m_frontretreat_calfin_1972_2019.nc,pseudo_plastic
110,430930.66928124777,seasonal_calving_id_1_1975_2025.nc,0.00011310610293575513,MAR3.9_MIROC-ESM-CHEM_rcp26_ocean_1960-2100_v4.nc,DMI-HIRHAM5_ERA_1975_2021_EPSG3413_4500M_MM.nc,0.00030722243422688005,1.3735953769532379,0.38711485836386206,1.6726742033882922,2.8812332,3.311225,0.76013136,0.019131077,5.137563,41.351753,-475.30322,285.48035,50,given_smb,false,routing,routing,th,pism_g450m_frontretreat_calfin_1972_2019.nc,pseudo_plastic
111,475839.8619841527,seasonal_calving_id_1_1975_2025.nc,0.00012855028736711457,MAR3.9_HadGEM2-ES_rcp85_ocean_1960-2100_v4.nc,MARv3.14-monthly-ERA5-1975_2023.nc,0.0003468391501508226,1.039809030053559,0.64620691711473,2.643999691260481,2.1721036,3.3692482,0.7641691,0.016527614,5.3412204,42.80585,-475.17725,271.1064,50,given_smb,false,routing,routing,th,pism_g450m_frontretreat_calfin_1972_2019.nc,pseudo_plastic
112,515653.0703225616,seasonal_calving_id_6_1975_2025.nc,8.836825237091937e-05,MAR3.9_MIROC-ESM-CHEM_rcp85_ocean_1960-2100_v4.nc,DMI-HIRHAM5_ERA_1975_2021_EPSG3413_4500M_MM.nc,0.00035554971351274615,1.483057750353883,0.5012727759659883,1.62065918464294,3.596066,3.380757,0.7813316,0.022955498,7.165462,42.823154,-240.72908,160.02715,50,given_smb,false,routing,routing,th,pism_g450m_frontretreat_calfin_1972_2019.nc,pseudo_plastic
113,545105.9323408501,seasonal_calving_id_6_1975_2025.nc,0.00012609243106497168,MAR3.9_CNRM-ESM2_ssp585_ocean_1960-2100_v4.nc,DMI-HIRHAM5_ERA_1975_2021_EPSG3413_4500M_MM.nc,0.00031139061031382003,1.6074241668540257,0.5284628726940499,2.749877084497898,2.2575107,3.2783673,0.73495805,0.01343551,11.3220415,42.78467,-352.5806,151.66339,50,given_smb,false,routing,routing,th,pism_g450m_frontretreat_calfin_1972_2019.nc,pseudo_plastic
114,447562.03086639754,seasonal_calving_id_3_1975_2025.nc,9.895219066341332e-05,MAR3.9_HadGEM2-ES_rcp85_ocean_1960-2100_v4.nc,DMI-HIRHAM5_ERA_1975_2021_EPSG3413_4500M_MM.nc,0.00029242336430656244,1.6647344622290081,0.4347372885749618,2.5555314561099447,2.6313155,3.284753,0.75049907,0.021042403,6.5068293,41.80262,-253.27777,201.88884,50,given_smb,false,routing,routing,th,pism_g450m_frontretreat_calfin_1972_2019.nc,pseudo_plastic
115,589643.845947086,seasonal_calving_id_6_1975_2025.nc,9.437258477611057e-05,MAR3.9_CNRM-CM6_ssp126_ocean_1960-2100_v4.nc,DMI-HIRHAM5_ERA_1975_2021_EPSG3413_4500M_MM.nc,0.0002779540371653456,1.3027332118077715,0.6566283180754016,1.4276674521510178,2.4199827,3.2761848,0.75897485,0.021888122,8.973235,40.428425,-299.06116,337.30646,50,given_smb,false,routing,routing,th,pism_g450m_frontretreat_calfin_1972_2019.nc,pseudo_plastic
116,483763.23305834306,seasonal_calving_id_4_1975_2025.nc,0.00014017244588390663,MAR3.9_MIROC-ESM-CHEM_rcp85_ocean_1960-2100_v4.nc,MARv3.14-monthly-ERA5-1975_2023.nc,0.00032510210228604787,1.1644675769979465,0.4285631125764561,2.137840890241356,2.9301097,3.2674325,0.5337387,0.019313216,8.57654,44.776352,-341.03836,148.66649,50,given_smb,false,routing,routing,th,pism_g450m_frontretreat_calfin_1972_2019.nc,pseudo_plastic
117,383296.8906269501,seasonal_calving_id_5_1975_2025.nc,8.372909719421551e-05,MAR3.9_IPSL-CM5-MR_rcp85_ocean_1960-2100_v4.nc,MARv3.14-monthly-ERA5-1975_2023.nc,0.000289436756274996,1.0711245166423937,0.35017038365140696,1.8298114854673821,2.6471493,3.2464578,0.84099025,0.016539523,6.213855,43.524036,-297.24127,84.206276,50,given_smb,false,routing,routing,th,pism_g450m_frontretreat_calfin_1972_2019.nc,pseudo_plastic
118,479002.0130609414,seasonal_calving_id_2_1975_2025.nc,0.00014112291322212017,MAR3.9_MIROC-ESM-CHEM_rcp26_ocean_1960-2100_v4.nc,DMI-HIRHAM5_ERA_1975_2021_EPSG3413_4500M_MM.nc,0.0003373418949291151,1.0284807018801077,0.4388799467383808,2.676674711571569,2.6071155,3.2930596,0.7128119,0.021643262,7.095753,40.552307,-345.11102,344.1382,50,given_smb,false,routing,routing,th,pism_g450m_frontretreat_calfin_1972_2019.nc,pseudo_plastic
119,535392.540170331,seasonal_calving_id_2_1975_2025.nc,8.669000252718405e-05,MAR3.9_CNRM-ESM2_ssp585_ocean_1960-2100_v4.nc,DMI-HIRHAM5_ERA_1975_2021_EPSG3413_4500M_MM.nc,0.0002547708024892373,1.3057836310121027,0.4259053755492519,1.5599918915547666,2.3709183,3.2824607,0.76277685,0.018406698,7.1173763,42.480614,-276.0313,174.03847,50,given_smb,false,routing,routing,th,pism_g450m_frontretreat_calfin_1972_2019.nc,pseudo_plastic
120,512445.3828925169,seasonal_calving_id_2_1975_2025.nc,0.0001492857911788653,MAR3.9_IPSL-CM5-MR_rcp85_ocean_1960-2100_v4.nc,MARv3.14-monthly-ERA5-1975_2023.nc,0.00028085234813353063,1.6146978128042653,0.5098201359784141,1.2275571121789564,2.9095342,3.2512248,0.7436896,0.018743955,6.967794,41.785183,-309.66238,301.24326,50,given_smb,false,routing,routing,th,pism_g450m_frontretreat_calfin_1972_2019.nc,pseudo_plastic
121,520392.3290433625,seasonal_calving_id_5_1975_2025.nc,9.090644535792461e-05,MAR3.9_MIROC-ESM-CHEM_rcp26_ocean_1960-2100_v4.nc,DMI-HIRHAM5_ERA_1975_2021_EPSG3413_4500M_MM.nc,0.00026365236845303454,1.115529620744154,0.5708636518190394,2.594081712926889,2.814281,3.373526,0.7019908,0.02196635,10.196637,41.3842,-404.78717,385.96445,50,given_smb,false,routing,routing,th,pism_g450m_frontretreat_calfin_1972_2019.nc,pseudo_plastic
122,412814.4856342827,seasonal_calving_id_4_1975_2025.nc,0.0001239729848775331,MAR3.9_CNRM-ESM2_ssp585_ocean_1960-2100_v4.nc,MARv3.14-monthly-ERA5-1975_2023.nc,0.00027866838301052605,1.450797006744892,0.5865302410504496,1.102488120209566,2.5232055,3.3293664,0.6327454,0.018507503,6.0353904,40.674713,-544.3556,256.18774,50,given_smb,false,routing,routing,th,pism_g450m_frontretreat_calfin_1972_2019.nc,pseudo_plastic
123,410909.0294530143,seasonal_calving_id_0_1975_2025.nc,0.00012505903206741202,MAR3.9_ACCESS1-3_rcp85_ocean_1960-2100_v4.nc,DMI-HIRHAM5_ERA_1975_2021_EPSG3413_4500M_MM.nc,0.00033612941537026553,1.2709609699174953,0.6089010093593972,1.4623710162354613,2.7103302,3.340548,0.7524569,0.023481095,7.8173676,42.1591,-305.99435,477.69775,50,given_smb,false,routing,routing,th,pism_g450m_frontretreat_calfin_1972_2019.nc,pseudo_plastic
124,400938.95011836477,seasonal_calving_id_5_1975_2025.nc,0.00013946229671437922,MAR3.9_ACCESS1-3_rcp85_ocean_1960-2100_v4.nc,MARv3.14-monthly-ERA5-1975_2023.nc,0.00031920034784715685,1.3829492510027657,0.3727659034954238,2.524266877496996,2.3222988,3.3002663,0.6561167,0.023104224,5.5912867,41.577297,-340.0031,384.0044,50,given_smb,false,routing,routing,th,pism_g450m_frontretreat_calfin_1972_2019.nc,pseudo_plastic
125,395860.62584993674,seasonal_calving_id_3_1975_2025.nc,0.00014572777784499242,MAR3.9_MIROC-ESM-CHEM_rcp85_ocean_1960-2100_v4.nc,MARv3.14-monthly-ERA5-1975_2023.nc,0.00031842704831303785,1.695396797547639,0.5363555857056106,1.1742924081831796,2.5315335,3.2654614,0.78200823,0.01954915,8.356796,40.81944,-216.18849,78.78788,50,given_smb,false,routing,routing,th,pism_g450m_frontretreat_calfin_1972_2019.nc,pseudo_plastic
126,620268.0228259808,seasonal_calving_id_2_1975_2025.nc,0.00013506781831814784,MAR3.9_CNRM-CM6_ssp585_ocean_1960-2100_v4.nc,DMI-HIRHAM5_ERA_1975_2021_EPSG3413_4500M_MM.nc,0.0002665251826279348,1.3197179916997808,0.6502097825993998,2.5783462697709303,2.3966846,3.3552084,0.89137197,0.014234875,6.245706,41.671833,-526.2724,171.676,50,given_smb,false,routing,routing,th,pism_g450m_frontretreat_calfin_1972_2019.nc,pseudo_plastic
127,481293.0062503522,seasonal_calving_id_5_1975_2025.nc,0.0001308002807128316,MAR3.9_CNRM-CM6_ssp126_ocean_1960-2100_v4.nc,DMI-HIRHAM5_ERA_1975_2021_EPSG3413_4500M_MM.nc,0.00032650007128328724,1.6693998407172561,0.36455888263394975,1.1886808235659672,2.4507854,3.3638191,0.73193944,0.02204294,5.247053,43.928596,-401.52386,475.70782,50,given_smb,false,routing,routing,th,pism_g450m_frontretreat_calfin_1972_2019.nc,pseudo_plastic
128,392374.95614080457,seasonal_calving_id_5_1975_2025.nc,0.00010178657624652077,MAR3.9_CNRM-CM6_ssp126_ocean_1960-2100_v4.nc,MARv3.14-monthly-ERA5-1975_2023.nc,0.00025271788079965106,1.1805501001613536,0.6925932871160555,1.6346722958414497,2.5793645,3.3045585,0.6603692,0.020949263,5.342601,42.20967,-540.99176,351.62466,50,given_smb,false,routing,routing,th,pism_g450m_frontretreat_calfin_1972_2019.nc,pseudo_plastic
129,644109.3771283852,seasonal_calving_id_4_1975_2025.nc,0.00010283410191279603,MAR3.9_MIROC-ESM-CHEM_rcp26_ocean_1960-2100_v4.nc,MARv3.14-monthly-ERA5-1975_2023.nc,0.0003142631228895131,1.3256682467012568,0.5521010871470702,2.3393769920708447,2.2516823,3.3156674,0.75702983,0.018706609,7.7231364,42.50472,-297.4657,443.86316,50,given_smb,false,routing,routing,th,pism_g450m_frontretreat_calfin_1972_2019.nc,pseudo_plastic
130,447281.29851286614,seasonal_calving_id_0_1975_2025.nc,8.903117224890995e-05,MAR3.9_CNRM-ESM2_ssp585_ocean_1960-2100_v4.nc,DMI-HIRHAM5_ERA_1975_2021_EPSG3413_4500M_MM.nc,0.0003287715535075345,1.4728602096544954,0.4716234202622056,1.142140096557201,2.4171128,3.3350759,0.7996898,0.015893877,7.933519,41.673862,-337.71182,261.28638,50,given_smb,false,routing,routing,th,pism_g450m_frontretreat_calfin_1972_2019.nc,pseudo_plastic
131,438135.86429004895,seasonal_calving_id_3_1975_2025.nc,8.518110262458968e-05,MAR3.9_ACCESS1-3_rcp85_ocean_1960-2100_v4.nc,MARv3.14-monthly-ERA5-1975_2023.nc,0.0002416453895913104,1.4358810482934157,0.4740271828808864,2.3482938503733637,2.2425654,3.2921097,0.9257631,0.018588383,5.6629696,43.11887,-263.5889,320.12875,50,given_smb,false,routing,routing,th,pism_g450m_frontretreat_calfin_1972_2019.nc,pseudo_plastic
132,488615.8028466932,seasonal_calving_id_5_1975_2025.nc,0.00013800866442060638,MAR3.9_NorESM1-M_rcp85_ocean_1960-2100_v4.nc,DMI-HIRHAM5_ERA_1975_2021_EPSG3413_4500M_MM.nc,0.00026497358837681553,1.1196983129153517,0.5564120317470397,1.8756416787226269,2.2009344,3.346911,0.8499846,0.021195209,7.3560863,42.76025,-249.65652,312.5053,50,given_smb,false,routing,routing,th,pism_g450m_frontretreat_calfin_1972_2019.nc,pseudo_plastic
133,357274.79667740874,seasonal_calving_id_6_1975_2025.nc,9.281813695559239e-05,MAR3.9_MIROC-ESM-CHEM_rcp26_ocean_1960-2100_v4.nc,DMI-HIRHAM5_ERA_1975_2021_EPSG3413_4500M_MM.nc,0.00027600298843348157,1.1270533954662936,0.35628810599782423,2.3122833882218,2.2543776,3.3175619,0.8078159,0.018791866,5.5242324,41.86061,-453.19232,282.03806,50,given_smb,false,routing,routing,th,pism_g450m_frontretreat_calfin_1972_2019.nc,pseudo_plastic
134,583300.5173985952,seasonal_calving_id_2_1975_2025.nc,0.00014978262460608606,MAR3.9_ACCESS1-3_rcp85_ocean_1960-2100_v4.nc,MARv3.14-monthly-ERA5-1975_2023.nc,0.00032290020983642145,1.079685011769754,0.3706892406023655,2.5666079458886246,2.882628,3.3029864,0.7385266,0.021164952,6.7209325,42.547188,-430.99988,387.98788,50,given_smb,false,routing,routing,th,pism_g450m_frontretreat_calfin_1972_2019.nc,pseudo_plastic
135,378734.43347717257,seasonal_calving_id_6_1975_2025.nc,9.068659052928264e-05,MAR3.9_MIROC-ESM-CHEM_rcp26_ocean_1960-2100_v4.nc,DMI-HIRHAM5_ERA_1975_2021_EPSG3413_4500M_MM.nc,0.00028777292310210083,1.5559792637554208,0.5444966667924811,2.7577936972752077,2.9087248,3.323469,0.67180467,0.019438794,7.7579846,42.583332,-446.926,299.7048,50,given_smb,false,routing,routing,th,pism_g450m_frontretreat_calfin_1972_2019.nc,pseudo_plastic
136,468504.4300796648,seasonal_calving_id_1_1975_2025.nc,9.220408763752416e-05,MAR3.9_CNRM-CM6_ssp585_ocean_1960-2100_v4.nc,DMI-HIRHAM5_ERA_1975_2021_EPSG3413_4500M_MM.nc,0.00026881467854513407,1.4649827862754161,0.45390134172471835,2.216065260338583,2.9598608,3.337516,0.7172852,0.023121938,8.076701,43.355297,-262.57788,300.01645,50,given_smb,false,routing,routing,th,pism_g450m_frontretreat_calfin_1972_2019.nc,pseudo_plastic
137,355509.7443928839,seasonal_calving_id_5_1975_2025.nc,0.00012373986272637712,MAR3.9_MIROC-ESM-CHEM_rcp85_ocean_1960-2100_v4.nc,MARv3.14-monthly-ERA5-1975_2023.nc,0.00026534108383643394,1.5825253636785295,0.31366447354358123,2.330812422377406,2.5818806,3.2888796,0.6056094,0.017764006,7.2939906,44.06558,-595.8615,651.38635,50,given_smb,false,routing,routing,th,pism_g450m_frontretreat_calfin_1972_2019.nc,pseudo_plastic
138,549082.2987422118,seasonal_calving_id_4_1975_2025.nc,9.616900675664417e-05,MAR3.9_MIROC-ESM-CHEM_rcp85_ocean_1960-2100_v4.nc,MARv3.14-monthly-ERA5-1975_2023.nc,0.000245862860461774,1.6556098382485405,0.36699203281615167,2.1745581100531033,2.678738,3.2901921,0.85264707,0.019324603,6.465703,42.97408,-275.73755,284.80972,50,given_smb,false,routing,routing,th,pism_g450m_frontretreat_calfin_1972_2019.nc,pseudo_plastic
139,376721.72245074407,seasonal_calving_id_2_1975_2025.nc,0.00011434025583964075,MAR3.9_UKESM1-CM6_ssp585_ocean_1960-2100_v4.nc,DMI-HIRHAM5_ERA_1975_2021_EPSG3413_4500M_MM.nc,0.000270901862454851,1.5105239281398197,0.32779493578810553,2.2473436915594807,2.463806,3.2759624,0.785889,0.013271904,5.3220344,42.218098,-366.2637,70.71327,50,given_smb,false,routing,routing,th,pism_g450m_frontretreat_calfin_1972_2019.nc,pseudo_plastic
140,529818.4646751018,seasonal_calving_id_0_1975_2025.nc,8.717798869693276e-05,MAR3.9_MIROC-ESM-CHEM_rcp26_ocean_1960-2100_v4.nc,MARv3.14-monthly-ERA5-1975_2023.nc,0.00035672012575450765,1.0090221489265898,0.3485412596029551,2.456430665748554,2.6327837,3.320099,0.84757376,0.02536957,5.2211366,41.62228,-298.56497,456.4144,50,given_smb,false,routing,routing,th,pism_g450m_frontretreat_calfin_1972_2019.nc,pseudo_plastic
141,435351.26456423476,seasonal_calving_id_5_1975_2025.nc,0.00012535439765688625,MAR3.9_CNRM-ESM2_ssp585_ocean_1960-2100_v4.nc,DMI-HIRHAM5_ERA_1975_2021_EPSG3413_4500M_MM.nc,0.00030704921717450125,1.1753272056328847,0.44945990106332634,2.551801406720947,2.8376145,3.375759,0.6447423,0.027658172,6.170966,43.01469,-448.2702,498.76367,50,given_smb,false,routing,routing,th,pism_g450m_frontretreat_calfin_1972_2019.nc,pseudo_plastic
142,353330.499604888,seasonal_calving_id_3_1975_2025.nc,0.00014692102676452072,MAR3.9_ACCESS1-3_rcp85_ocean_1960-2100_v4.nc,MARv3.14-monthly-ERA5-1975_2023.nc,0.00027232447047510864,1.4164205145019566,0.3001509591415498,1.8530944941511431,2.8508394,3.335144,0.6779487,0.017537404,13.322942,40.970146,-304.4882,294.54376,50,given_smb,false,routing,routing,th,pism_g450m_frontretreat_calfin_1972_2019.nc,pseudo_plastic
143,592310.8962315659,seasonal_calving_id_0_1975_2025.nc,8.591775771458388e-05,MAR3.9_CNRM-CM6_ssp126_ocean_1960-2100_v4.nc,DMI-HIRHAM5_ERA_1975_2021_EPSG3413_4500M_MM.nc,0.00029074164025192213,1.5253347007164795,0.3339326394369087,1.837597651428214,2.6871784,3.3445296,0.8583076,0.02483572,5.7442975,41.00967,-396.86148,710.3413,50,given_smb,false,routing,routing,th,pism_g450m_frontretreat_calfin_1972_2019.nc,pseudo_plastic
144,595355.3190961664,seasonal_calving_id_4_1975_2025.nc,7.765475781906608e-05,MAR3.9_MIROC-ESM-CHEM_rcp26_ocean_1960-2100_v4.nc,MARv3.14-monthly-ERA5-1975_2023.nc,0.00034596578237878063,1.277200367389601,0.5953593715390071,1.8130416075435423,2.851648,3.367684,0.76103324,0.024060382,6.763413,43.21127,-262.87042,270.4404,50,given_smb,false,routing,routing,th,pism_g450m_frontretreat_calfin_1972_2019.nc,pseudo_plastic
145,557454.436369292,seasonal_calving_id_1_1975_2025.nc,0.00014533908228504683,MAR3.9_NorESM1-M_rcp85_ocean_1960-2100_v4.nc,DMI-HIRHAM5_ERA_1975_2021_EPSG3413_4500M_MM.nc,0.00035503568046478474,1.1662508104013223,0.4878685636739166,2.5131532305540385,2.5137036,3.3364797,0.81741655,0.016107371,8.501935,44.680298,-360.70145,287.1667,50,given_smb,false,routing,routing,th,pism_g450m_frontretreat_calfin_1972_2019.nc,pseudo_plastic
146,393788.15922430763,seasonal_calving_id_4_1975_2025.nc,0.00010418967883494849,MAR3.9_IPSL-CM5-MR_rcp85_ocean_1960-2100_v4.nc,MARv3.14-monthly-ERA5-1975_2023.nc,0.0002995450038982306,1.5745012381018346,0.41841743375946305,2.3069842929597186,2.564697,3.2560089,0.74868643,0.019298494,6.0170336,40.733204,-389.37347,412.99185,50,given_smb,false,routing,routing,th,pism_g450m_frontretreat_calfin_1972_2019.nc,pseudo_plastic
147,505787.50189868704,seasonal_calving_id_3_1975_2025.nc,0.00013115452190637245,MAR3.9_CSIRO-Mk3.6_rcp85_ocean_1960-2100_v4.nc,DMI-HIRHAM5_ERA_1975_2021_EPSG3413_4500M_MM.nc,0.0003030485025785304,1.157233999251229,0.6669603408611531,1.4009614931695562,2.3744142,3.2413032,0.8904141,0.023439946,5.568501,44.33902,-343.95602,528.93524,50,given_smb,false,routing,routing,th,pism_g450m_frontretreat_calfin_1972_2019.nc,pseudo_plastic
148,536211.9404639162,seasonal_calving_id_1_1975_2025.nc,0.00010813892517716678,MAR3.9_CSIRO-Mk3.6_rcp85_ocean_1960-2100_v4.nc,DMI-HIRHAM5_ERA_1975_2021_EPSG3413_4500M_MM.nc,0.0002792152028203228,1.5809055505799092,0.35377665590775376,1.6465254805416862,2.4058292,3.2614768,0.6883038,0.015912827,6.275436,44.748608,-370.57074,196.03918,50,given_smb,false,routing,routing,th,pism_g450m_frontretreat_calfin_1972_2019.nc,pseudo_plastic
149,377698.53703470796,seasonal_calving_id_6_1975_2025.nc,0.00010785712675578609,MAR3.9_NorESM1-M_rcp85_ocean_1960-2100_v4.nc,DMI-HIRHAM5_ERA_1975_2021_EPSG3413_4500M_MM.nc,0.00024643334603991466,1.4293554908913473,0.6818261117674658,1.8165229899714013,2.5800083,3.3414173,0.7325434,0.016771698,6.485904,40.161865,-542.7224,137.56369,50,given_smb,false,routing,routing,th,pism_g450m_frontretreat_calfin_1972_2019.nc,pseudo_plastic
150,387009.5705018998,seasonal_calving_id_6_1975_2025.nc,8.497494985793023e-05,MAR3.9_UKESM1-CM6_ssp585_ocean_1960-2100_v4.nc,MARv3.14-monthly-ERA5-1975_2023.nc,0.0002469846793079086,1.2018548108705351,0.38919433864079966,2.6357603080799974,3.073563,3.318411,0.6100877,0.023634003,6.793201,41.82606,-445.82574,338.18036,50,given_smb,false,routing,routing,th,pism_g450m_frontretreat_calfin_1972_2019.nc,pseudo_plastic
151,585234.8132597558,seasonal_calving_id_3_1975_2025.nc,0.00012155542952799687,MAR3.9_ACCESS1-3_rcp85_ocean_1960-2100_v4.nc,DMI-HIRHAM5_ERA_1975_2021_EPSG3413_4500M_MM.nc,0.00026230817616819765,1.5467958654737233,0.6989654607041325,1.4500614446298672,2.196059,3.300628,0.65336806,0.015300184,7.9651484,41.02843,-463.24786,161.12543,50,given_smb,false,routing,routing,th,pism_g450m_frontretreat_calfin_1972_2019.nc,pseudo_plastic
152,621848.8382760341,seasonal_calving_id_4_1975_2025.nc,0.00011964256778609772,MAR3.9_CNRM-CM6_ssp126_ocean_1960-2100_v4.nc,MARv3.14-monthly-ERA5-1975_2023.nc,0.0003542262904851259,1.5422954510324025,0.41317349418728205,2.799116355690698,3.0718017,3.336831,0.7585292,0.020534227,9.917445,41.054886,-206.84215,71.83405,50,given_smb,false,routing,routing,th,pism_g450m_frontretreat_calfin_1972_2019.nc,pseudo_plastic
153,524456.4477586637,seasonal_calving_id_0_1975_2025.nc,0.0001492431064963893,MAR3.9_CNRM-CM6_ssp585_ocean_1960-2100_v4.nc,MARv3.14-monthly-ERA5-1975_2023.nc,0.00031583592784432577,1.2155804809871964,0.624501837613155,2.6638825689634285,2.4703553,3.3094816,0.8461085,0.015159968,9.136873,42.87353,-374.3404,185.05537,50,given_smb,false,routing,routing,th,pism_g450m_frontretreat_calfin_1972_2019.nc,pseudo_plastic
154,504133.0144558225,seasonal_calving_id_6_1975_2025.nc,0.00012814433567237576,MAR3.9_CNRM-ESM2_ssp585_ocean_1960-2100_v4.nc,DMI-HIRHAM5_ERA_1975_2021_EPSG3413_4500M_MM.nc,0.00028510535923326023,1.6211759846866416,0.5252513273813166,1.5906240679364685,2.6629217,3.3099587,0.61750734,0.018249234,9.745724,42.679546,-388.4297,174.88138,50,given_smb,false,routing,routing,th,pism_g450m_frontretreat_calfin_1972_2019.nc,pseudo_plastic
155,460060.1530119353,seasonal_calving_id_5_1975_2025.nc,9.126326613205102e-05,MAR3.9_IPSL-CM5-MR_rcp85_ocean_1960-2100_v4.nc,MARv3.14-monthly-ERA5-1975_2023.nc,0.0002566926419189051,1.1878982444887705,0.5642674871821747,2.153284628803097,2.8156867,3.274765,0.77204674,0.017782422,8.195245,43.299324,-338.91544,219.52919,50,given_smb,false,routing,routing,th,pism_g450m_frontretreat_calfin_1972_2019.nc,pseudo_plastic
156,427870.18076699355,seasonal_calving_id_0_1975_2025.nc,0.00010045895066337245,MAR3.9_MIROC-ESM-CHEM_rcp26_ocean_1960-2100_v4.nc,MARv3.14-monthly-ERA5-1975_2023.nc,0.00031313409799693973,1.2550558533260159,0.43740041173177513,1.7246623953988887,2.2660024,3.367958,0.93070084,0.020042416,5.5313344,43.29742,-364.8909,170.66559,50,given_smb,false,routing,routing,th,pism_g450m_frontretreat_calfin_1972_2019.nc,pseudo_plastic
157,522033.79387280444,seasonal_calving_id_5_1975_2025.nc,8.658489492448395e-05,MAR3.9_CSIRO-Mk3.6_rcp85_ocean_1960-2100_v4.nc,MARv3.14-monthly-ERA5-1975_2023.nc,0.0002614622720411151,1.1980974250260903,0.5751438214876137,1.2202900055235928,2.6413615,3.2818482,0.6459314,0.022994367,6.559016,41.45416,-308.50208,309.409,50,given_smb,false,routing,routing,th,pism_g450m_frontretreat_calfin_1972_2019.nc,pseudo_plastic
158,431236.3668660765,seasonal_calving_id_1_1975_2025.nc,9.387523254179511e-05,MAR3.9_NorESM1-M_rcp85_ocean_1960-2100_v4.nc,DMI-HIRHAM5_ERA_1975_2021_EPSG3413_4500M_MM.nc,0.0002920896106961663,1.4974406525780795,0.46690670273341894,2.3720577971446883,2.6696696,3.264147,0.62111443,0.019503333,5.471896,40.810383,-496.32773,301.33334,50,given_smb,false,routing,routing,th,pism_g450m_frontretreat_calfin_1972_2019.nc,pseudo_plastic
159,528393.6631409156,seasonal_calving_id_2_1975_2025.nc,0.0001259109452122654,MAR3.9_MIROC-ESM-CHEM_rcp85_ocean_1960-2100_v4.nc,DMI-HIRHAM5_ERA_1975_2021_EPSG3413_4500M_MM.nc,0.0002560457001483625,1.19459946638932,0.31153525964525897,1.407612653990137,2.5672233,3.3076742,0.7214174,0.018751847,8.969371,40.51457,-279.95743,81.36887,50,given_smb,false,routing,routing,th,pism_g450m_frontretreat_calfin_1972_2019.nc,pseudo_plastic
160,350463.37423466716,seasonal_calving_id_5_1975_2025.nc,0.00011086374903389703,MAR3.9_MIROC-ESM-CHEM_rcp85_ocean_1960-2100_v4.nc,MARv3.14-monthly-ERA5-1975_2023.nc,0.0003352562970925138,1.2486785949827568,0.5723453342488596,2.0393992038681925,2.4045792,3.351704,0.7720812,0.017385071,8.507246,42.01991,-313.27515,222.34642,50,given_smb,false,routing,routing,th,pism_g450m_frontretreat_calfin_1972_2019.nc,pseudo_plastic
161,493253.7521479509,seasonal_calving_id_4_1975_2025.nc,8.037423288711298e-05,MAR3.9_UKESM1-CM6_ssp585_ocean_1960-2100_v4.nc,MARv3.14-monthly-ERA5-1975_2023.nc,0.0002441796420058834,1.6336641251184911,0.40691901889887133,1.8902673645676016,2.9243555,3.337671,0.67647874,0.021862209,6.826463,44.33547,-468.12057,473.9691,50,given_smb,false,routing,routing,th,pism_g450m_frontretreat_calfin_1972_2019.nc,pseudo_plastic
162,384972.8289461896,seasonal_calving_id_6_1975_2025.nc,0.00010387222321104424,MAR3.9_HadGEM2-ES_rcp85_ocean_1960-2100_v4.nc,DMI-HIRHAM5_ERA_1975_2021_EPSG3413_4500M_MM.nc,0.0002820498227100856,1.4873663802825856,0.6110066679372951,2.473379832072799,2.543554,3.2817214,0.72125816,0.02036613,5.891338,41.246483,-335.7783,130.83073,50,given_smb,false,routing,routing,th,pism_g450m_frontretreat_calfin_1972_2019.nc,pseudo_plastic
163,408725.08530506433,seasonal_calving_id_2_1975_2025.nc,0.00011775671512651847,MAR3.9_UKESM1-CM6_ssp585_ocean_1960-2100_v4.nc,DMI-HIRHAM5_ERA_1975_2021_EPSG3413_4500M_MM.nc,0.0003427941064696299,1.3982359128425723,0.6374718705983311,2.1665502896209294,2.6344564,3.2756064,0.68633384,0.018979128,6.341714,41.906155,-351.86127,149.73007,50,given_smb,false,routing,routing,th,pism_g450m_frontretreat_calfin_1972_2019.nc,pseudo_plastic
164,458446.8387172905,seasonal_calving_id_0_1975_2025.nc,0.0001094646447712706,MAR3.9_CNRM-CM6_ssp126_ocean_1960-2100_v4.nc,MARv3.14-monthly-ERA5-1975_2023.nc,0.00031541920377616553,1.6032732564255965,0.4455931669307246,1.181888993597601,2.6261132,3.2584918,0.8115323,0.014362389,6.2167115,41.52373,-453.99173,181.45534,50,given_smb,false,routing,routing,th,pism_g450m_frontretreat_calfin_1972_2019.nc,pseudo_plastic
165,638843.5959114666,seasonal_calving_id_3_1975_2025.nc,0.0001341127541342554,MAR3.9_HadGEM2-ES_rcp85_ocean_1960-2100_v4.nc,DMI-HIRHAM5_ERA_1975_2021_EPSG3413_4500M_MM.nc,0.00035798438359961496,1.2056342126246435,0.3614117211472515,2.3828230792151865,2.610243,3.3333895,0.5681164,0.017956106,5.906186,41.53602,-561.2833,196.25375,50,given_smb,false,routing,routing,th,pism_g450m_frontretreat_calfin_1972_2019.nc,pseudo_plastic
166,466648.8766435583,seasonal_calving_id_4_1975_2025.nc,8.776565743635833e-05,MAR3.9_NorESM1-M_rcp85_ocean_1960-2100_v4.nc,MARv3.14-monthly-ERA5-1975_2023.nc,0.00035950047548782946,1.5565842101715224,0.49132177070197586,1.4396282599039694,2.3877068,3.3053617,0.722274,0.017771935,8.986241,43.60372,-271.1859,120.819016,50,given_smb,false,routing,routing,th,pism_g450m_frontretreat_calfin_1972_2019.nc,pseudo_plastic
167,455161.20970742364,seasonal_calving_id_2_1975_2025.nc,0.00013691144659072312,MAR3.9_CNRM-CM6_ssp126_ocean_1960-2100_v4.nc,MARv3.14-monthly-ERA5-1975_2023.nc,0.00026169077271043006,1.4707333540767227,0.5927896970747655,2.074975680284735,3.0574799,3.337808,0.6435166,0.023452766,9.640868,40.905384,-287.75595,259.58572,50,given_smb,false,routing,routing,th,pism_g450m_frontretreat_calfin_1972_2019.nc,pseudo_plastic
168,640318.1460327301,seasonal_calving_id_2_1975_2025.nc,0.0001331498831601663,MAR3.9_HadGEM2-ES_rcp85_ocean_1960-2100_v4.nc,MARv3.14-monthly-ERA5-1975_2023.nc,0.00030241176960167437,1.014385450680391,0.3931747247742038,1.1522721617517724,2.0034728,3.3333638,0.57916313,0.016522339,7.3934875,43.455204,-585.77594,314.9166,50,given_smb,false,routing,routing,th,pism_g450m_frontretreat_calfin_1972_2019.nc,pseudo_plastic
169,450776.97831298294,seasonal_calving_id_5_1975_2025.nc,9.685648762449336e-05,MAR3.9_CNRM-CM6_ssp126_ocean_1960-2100_v4.nc,MARv3.14-monthly-ERA5-1975_2023.nc,0.00035727430859599195,1.055206060362727,0.6602914056487945,2.744382333569412,2.654394,3.3278193,0.74504673,0.016718281,11.116882,42.010406,-326.75897,280.41513,50,given_smb,false,routing,routing,th,pism_g450m_frontretreat_calfin_1972_2019.nc,pseudo_plastic
170,606250.0818909454,seasonal_calving_id_4_1975_2025.nc,0.0001115462058671077,MAR3.9_UKESM1-CM6_ssp585_ocean_1960-2100_v4.nc,MARv3.14-monthly-ERA5-1975_2023.nc,0.00034322142957897656,1.2373108931126935,0.5155637181747514,1.476753032661724,2.2159145,3.318619,0.8647384,0.012035407,7.2849417,43.419544,-336.97983,74.885185,50,given_smb,false,routing,routing,th,pism_g450m_frontretreat_calfin_1972_2019.nc,pseudo_plastic
171,449950.0427206757,seasonal_calving_id_4_1975_2025.nc,9.801103478944919e-05,MAR3.9_MIROC-ESM-CHEM_rcp85_ocean_1960-2100_v4.nc,DMI-HIRHAM5_ERA_1975_2021_EPSG3413_4500M_MM.nc,0.00025227289670413103,1.1047406771035893,0.39788859173745594,1.2656007139970349,2.3224955,3.3568864,0.91400427,0.026329502,7.281305,44.596836,-283.76315,645.52936,50,given_smb,false,routing,routing,th,pism_g450m_frontretreat_calfin_1972_2019.nc,pseudo_plastic
172,628338.0391455286,seasonal_calving_id_2_1975_2025.nc,9.825589502152342e-05,MAR3.9_MIROC-ESM-CHEM_rcp85_ocean_1960-2100_v4.nc,MARv3.14-monthly-ERA5-1975_2023.nc,0.0002495888142666192,1.141234882027589,0.4936734041194304,2.0262759147605434,2.9531314,3.3062658,0.7527472,0.020910155,7.05116,44.30574,-230.96045,284.21426,50,given_smb,false,routing,routing,th,pism_g450m_frontretreat_calfin_1972_2019.nc,pseudo_plastic
173,477898.4965539078,seasonal_calving_id_3_1975_2025.nc,0.00014165023320712337,MAR3.9_UKESM1-CM6_ssp585_ocean_1960-2100_v4.nc,MARv3.14-monthly-ERA5-1975_2023.nc,0.000303861690715362,1.47693979706664,0.6906145171042916,2.233161747354562,2.5955791,3.3619826,0.7469889,0.01833943,12.326362,44.55105,-300.64792,269.6509,50,given_smb,false,routing,routing,th,pism_g450m_frontretreat_calfin_1972_2019.nc,pseudo_plastic
174,472745.9567368264,seasonal_calving_id_3_1975_2025.nc,9.013901696544405e-05,MAR3.9_CSIRO-Mk3.6_rcp85_ocean_1960-2100_v4.nc,MARv3.14-monthly-ERA5-1975_2023.nc,0.0003445825738653863,1.0755199479952746,0.45015839318649403,2.769833377486772,2.7080526,3.3497076,0.70424426,0.016989201,11.302195,41.79334,-302.3854,80.90232,50,given_smb,false,routing,routing,th,pism_g450m_frontretreat_calfin_1972_2019.nc,pseudo_plastic
175,587544.4604094976,seasonal_calving_id_2_1975_2025.nc,0.00014304124938551712,MAR3.9_CSIRO-Mk3.6_rcp85_ocean_1960-2100_v4.nc,MARv3.14-monthly-ERA5-1975_2023.nc,0.0003254444389176864,1.6856391166143732,0.5965366744186921,1.218895544398797,2.094381,3.2881424,0.57503575,0.01414344,10.45207,43.114147,-371.2377,90.60521,50,given_smb,false,routing,routing,th,pism_g450m_frontretreat_calfin_1972_2019.nc,pseudo_plastic
176,615080.7594535947,seasonal_calving_id_3_1975_2025.nc,8.322284888625857e-05,MAR3.9_UKESM1-CM6_ssp585_ocean_1960-2100_v4.nc,DMI-HIRHAM5_ERA_1975_2021_EPSG3413_4500M_MM.nc,0.00027018488785274366,1.1846876237993074,0.46904692945077997,1.5381936218304548,2.822987,3.3086252,0.66434455,0.015070033,12.423464,43.33909,-275.42267,111.21221,50,given_smb,false,routing,routing,th,pism_g450m_frontretreat_calfin_1972_2019.nc,pseudo_plastic
177,398278.0379883129,seasonal_calving_id_2_1975_2025.nc,0.00010080079425521334,MAR3.9_CNRM-ESM2_ssp585_ocean_1960-2100_v4.nc,MARv3.14-monthly-ERA5-1975_2023.nc,0.00024446479873227103,1.3583082041677101,0.4313197841286231,1.504767927953806,2.744244,3.388489,0.88999444,0.020937994,8.50483,42.22686,-285.75223,339.69205,50,given_smb,false,routing,routing,th,pism_g450m_frontretreat_calfin_1972_2019.nc,pseudo_plastic
178,576513.802300468,seasonal_calving_id_0_1975_2025.nc,0.00010568973566617103,MAR3.9_CNRM-CM6_ssp126_ocean_1960-2100_v4.nc,DMI-HIRHAM5_ERA_1975_2021_EPSG3413_4500M_MM.nc,0.00028192248738595217,1.6986837448581817,0.42135999195104845,2.0172084235293464,2.829061,3.337101,0.8111225,0.024047239,7.550403,41.856037,-298.0717,308.00528,50,given_smb,false,routing,routing,th,pism_g450m_frontretreat_calfin_1972_2019.nc,pseudo_plastic
179,550069.6086945767,seasonal_calving_id_0_1975_2025.nc,0.00014364746527115234,MAR3.9_HadGEM2-ES_rcp85_ocean_1960-2100_v4.nc,MARv3.14-monthly-ERA5-1975_2023.nc,0.00024034420283087455,1.060614235987743,0.526674409763701,1.7116827661896903,2.6123521,3.314041,0.6771867,0.017978761,6.68605,43.031384,-349.3093,246.58131,50,given_smb,false,routing,routing,th,pism_g450m_frontretreat_calfin_1972_2019.nc,pseudo_plastic
180,631559.6206830251,seasonal_calving_id_3_1975_2025.nc,0.00011714850500094991,MAR3.9_MIROC-ESM-CHEM_rcp85_ocean_1960-2100_v4.nc,DMI-HIRHAM5_ERA_1975_2021_EPSG3413_4500M_MM.nc,0.00028331214210327465,1.627954672714767,0.4014084578969005,1.442049531899029,2.367284,3.2844498,0.69719833,0.022485534,8.111609,41.327694,-205.11531,210.67776,50,given_smb,false,routing,routing,th,pism_g450m_frontretreat_calfin_1972_2019.nc,pseudo_plastic
181,573058.0415454744,seasonal_calving_id_3_1975_2025.nc,7.721625936837206e-05,MAR3.9_IPSL-CM5-MR_rcp85_ocean_1960-2100_v4.nc,DMI-HIRHAM5_ERA_1975_2021_EPSG3413_4500M_MM.nc,0.00025834663220350196,1.1121118982239726,0.3913255636518081,1.5243884141725563,2.5245104,3.3278344,0.7533878,0.020077698,6.8062735,41.076427,-419.5946,273.034,50,given_smb,false,routing,routing,th,pism_g450m_frontretreat_calfin_1972_2019.nc,pseudo_plastic
182,499746.7373507641,seasonal_calving_id_0_1975_2025.nc,0.00012090239698553063,MAR3.9_HadGEM2-ES_rcp85_ocean_1960-2100_v4.nc,DMI-HIRHAM5_ERA_1975_2021_EPSG3413_4500M_MM.nc,0.00027360642936115397,1.6774103563082146,0.3770790434573393,2.724703210329756,2.0005186,3.244255,0.74312925,0.015578937,9.470013,41.00704,-433.95148,237.19218,50,given_smb,false,routing,routing,th,pism_g450m_frontretreat_calfin_1972_2019.nc,pseudo_plastic
183,563680.7920819024,seasonal_calving_id_4_1975_2025.nc,0.00010886591311453655,MAR3.9_CNRM-CM6_ssp126_ocean_1960-2100_v4.nc,DMI-HIRHAM5_ERA_1975_2021_EPSG3413_4500M_MM.nc,0.0002881572760569501,1.6926936991182613,0.6644530289283237,1.1206049180797653,2.5839198,3.2881317,0.6807863,0.02202013,6.658472,43.850163,-391.70105,462.12057,50,given_smb,false,routing,routing,th,pism_g450m_frontretreat_calfin_1972_2019.nc,pseudo_plastic
184,502963.5153296419,seasonal_calving_id_1_1975_2025.nc,0.00011334055083879455,MAR3.9_CSIRO-Mk3.6_rcp85_ocean_1960-2100_v4.nc,DMI-HIRHAM5_ERA_1975_2021_EPSG3413_4500M_MM.nc,0.00035052912064495483,1.0068948071544153,0.34258153666229335,1.3349581230005152,2.5556743,3.2998786,0.6171121,0.018280853,6.2255135,41.892155,-487.65207,325.98428,50,given_smb,false,routing,routing,th,pism_g450m_frontretreat_calfin_1972_2019.nc,pseudo_plastic
185,497342.68062099034,seasonal_calving_id_0_1975_2025.nc,0.00014094213169374756,MAR3.9_ACCESS1-3_rcp85_ocean_1960-2100_v4.nc,MARv3.14-monthly-ERA5-1975_2023.nc,0.00029930047502715933,1.226635254743769,0.6776255976945007,1.3536113142787265,3.0955453,3.366431,0.5329493,0.01924541,8.025545,42.967335,-561.5007,164.6368,50,given_smb,false,routing,routing,th,pism_g450m_frontretreat_calfin_1972_2019.nc,pseudo_plastic
186,433560.62874902703,seasonal_calving_id_0_1975_2025.nc,0.00014823280925167596,MAR3.9_CSIRO-Mk3.6_rcp85_ocean_1960-2100_v4.nc,MARv3.14-monthly-ERA5-1975_2023.nc,0.0003272882357381575,1.3516338105718095,0.5515952143581484,1.6082890105394823,3.1134264,3.3075962,0.7301282,0.01943534,6.481518,43.479782,-353.6952,227.20879,50,given_smb,false,routing,routing,th,pism_g450m_frontretreat_calfin_1972_2019.nc,pseudo_plastic
187,569974.4556427045,seasonal_calving_id_2_1975_2025.nc,8.407538577325737e-05,MAR3.9_CNRM-ESM2_ssp585_ocean_1960-2100_v4.nc,MARv3.14-monthly-ERA5-1975_2023.nc,0.000341762473902094,1.4583985933776378,0.6295435886512823,2.4066742057734922,2.5214658,3.2876856,0.6290447,0.02060629,6.2612195,43.634163,-457.79123,405.06686,50,given_smb,false,routing,routing,th,pism_g450m_frontretreat_calfin_1972_2019.nc,pseudo_plastic
188,649552.6082535402,seasonal_calving_id_0_1975_2025.nc,7.971857850014111e-05,MAR3.9_CNRM-ESM2_ssp585_ocean_1960-2100_v4.nc,MARv3.14-monthly-ERA5-1975_2023.nc,0.0002769021288208958,1.3891636991447338,0.6120340402331197,2.1808026902338145,3.1065023,3.346749,0.65916514,0.019295545,6.7172713,42.933174,-539.5226,277.7722,50,given_smb,false,routing,routing,th,pism_g450m_frontretreat_calfin_1972_2019.nc,pseudo_plastic
189,428214.8438765867,seasonal_calving_id_2_1975_2025.nc,7.865591616474556e-05,MAR3.9_CNRM-ESM2_ssp585_ocean_1960-2100_v4.nc,DMI-HIRHAM5_ERA_1975_2021_EPSG3413_4500M_MM.nc,0.00025022800802311404,1.0420659279409035,0.5909532484081546,2.582021910445045,2.817782,3.302518,0.8375826,0.018966878,8.244857,41.27821,-259.47113,156.71472,50,given_smb,false,routing,routing,th,pism_g450m_frontretreat_calfin_1972_2019.nc,pseudo_plastic
190,626375.5101937226,seasonal_calving_id_1_1975_2025.nc,0.00014249153824577837,MAR3.9_MIROC-ESM-CHEM_rcp85_ocean_1960-2100_v4.nc,MARv3.14-monthly-ERA5-1975_2023.nc,0.00027734140729344557,1.130824979164095,0.6541681681187638,1.1110815142145567,2.8955789,3.3188035,0.69414896,0.01709918,7.27211,40.99991,-532.71655,233.1446,50,given_smb,false,routing,routing,th,pism_g450m_frontretreat_calfin_1972_2019.nc,pseudo_plastic
191,647189.3703112714,seasonal_calving_id_5_1975_2025.nc,0.00014860811571472938,MAR3.9_CNRM-ESM2_ssp585_ocean_1960-2100_v4.nc,MARv3.14-monthly-ERA5-1975_2023.nc,0.0002937331215081991,1.1608421328825218,0.3696663850113591,1.9503710846418096,2.8132308,3.3218832,0.7868327,0.019178746,6.3606377,42.71612,-371.5421,442.6514,50,given_smb,false,routing,routing,th,pism_g450m_frontretreat_calfin_1972_2019.nc,pseudo_plastic
192,607536.8319048688,seasonal_calving_id_6_1975_2025.nc,7.893976148401058e-05,MAR3.9_ACCESS1-3_rcp85_ocean_1960-2100_v4.nc,MARv3.14-monthly-ERA5-1975_2023.nc,0.00027544303827299333,1.6179108898384178,0.4993151299696535,2.718240923541158,1.8530381,3.2569523,0.91271245,0.011832358,6.001043,42.81408,-314.91214,42.114906,50,given_smb,false,routing,routing,th,pism_g450m_frontretreat_calfin_1972_2019.nc,pseudo_plastic
193,616486.007121294,seasonal_calving_id_1_1975_2025.nc,8.191496509139638e-05,MAR3.9_CSIRO-Mk3.6_rcp85_ocean_1960-2100_v4.nc,MARv3.14-monthly-ERA5-1975_2023.nc,0.0003491361694556316,1.3444727868200674,0.39997160140875826,2.047992781222031,2.9845188,3.2758605,0.8267081,0.026680328,5.691662,44.452717,-98.460434,39.97402,50,given_smb,false,routing,routing,th,pism_g450m_frontretreat_calfin_1972_2019.nc,pseudo_plastic
194,476043.8991885908,seasonal_calving_id_5_1975_2025.nc,9.349578135875297e-05,MAR3.9_CSIRO-Mk3.6_rcp85_ocean_1960-2100_v4.nc,MARv3.14-monthly-ERA5-1975_2023.nc,0.0003533877386519943,1.6504016967652984,0.4410577933942506,1.7330707988108913,2.415221,3.3387606,0.8820827,0.01872706,6.0769987,42.308403,-349.7428,205.76501,50,given_smb,false,routing,routing,th,pism_g450m_frontretreat_calfin_1972_2019.nc,pseudo_plastic
195,508467.13127947185,seasonal_calving_id_5_1975_2025.nc,0.00010103618061406168,MAR3.9_CNRM-CM6_ssp585_ocean_1960-2100_v4.nc,DMI-HIRHAM5_ERA_1975_2021_EPSG3413_4500M_MM.nc,0.0002501743099015164,1.5218332137224806,0.6731876613978891,2.4156787319009023,2.325832,3.3370538,0.7165397,0.015293389,5.4791703,42.436134,-440.05014,165.17253,50,given_smb,false,routing,routing,th,pism_g450m_frontretreat_calfin_1972_2019.nc,pseudo_plastic
196,506827.1059711414,seasonal_calving_id_2_1975_2025.nc,0.00011897119366020544,MAR3.9_CSIRO-Mk3.6_rcp85_ocean_1960-2100_v4.nc,MARv3.14-monthly-ERA5-1975_2023.nc,0.0003012039217009942,1.3006964791863997,0.6627566760410777,1.8572526981520188,2.8262818,3.307503,0.8035937,0.015442933,5.2999487,43.86556,-455.62402,192.02477,50,given_smb,false,routing,routing,th,pism_g450m_frontretreat_calfin_1972_2019.nc,pseudo_plastic
197,396655.8561653326,seasonal_calving_id_6_1975_2025.nc,0.00011026041182112708,MAR3.9_UKESM1-CM6_ssp585_ocean_1960-2100_v4.nc,DMI-HIRHAM5_ERA_1975_2021_EPSG3413_4500M_MM.nc,0.00031169096395618505,1.5672773916342861,0.5049844788201534,1.7168024070092325,2.1441076,3.2430587,0.63463897,0.013985226,8.022364,42.43706,-375.00803,125.769196,50,given_smb,false,routing,routing,th,pism_g450m_frontretreat_calfin_1972_2019.nc,pseudo_plastic
198,578864.2114656672,seasonal_calving_id_1_1975_2025.nc,7.606932084533723e-05,MAR3.9_CNRM-CM6_ssp126_ocean_1960-2100_v4.nc,MARv3.14-monthly-ERA5-1975_2023.nc,0.0002539218242811449,1.4401359493935766,0.4103699688546238,2.6000002706806207,2.5854607,3.3399923,0.758771,0.02123476,6.216697,42.203857,-366.94635,328.1907,50,given_smb,false,routing,routing,th,pism_g450m_frontretreat_calfin_1972_2019.nc,pseudo_plastic
199,390524.69173366576,seasonal_calving_id_5_1975_2025.nc,0.00013968109219167948,MAR3.9_CNRM-CM6_ssp585_ocean_1960-2100_v4.nc,DMI-HIRHAM5_ERA_1975_2021_EPSG3413_4500M_MM.nc,0.00033920064302644557,1.4260853531152868,0.6522889133352618,1.9123443578398853,2.5046947,3.2732604,0.6161878,0.017913613,6.3381915,41.42563,-477.5311,210.07031,50,given_smb,false,routing,routing,th,pism_g450m_frontretreat_calfin_1972_2019.nc,pseudo_plastic
