id,calving.vonmises_calving.sigma_max,basal_resistance.pseudo_plastic.q,basal_yield_stress.mohr_coulomb.till_effective_fraction_overburden,basal_yield_stress.mohr_coulomb.topg_to_phi.phi_max,basal_yield_stress.mohr_coulomb.topg_to_phi.phi_min,basal_yield_stress.mohr_coulomb.topg_to_phi.topg_max,basal_yield_stress.mohr_coulomb.topg_to_phi.topg_min,calving.thickness_calving.threshold,climate,climate_file,fractures,frontal_melt,hydrology,ocean.models,ocean.th.gamma_T,ocean_file,prescribed_retreat_file,sliding_law,stress_balance.sia.enhancement_factor,stress_balance.ssa.Glen_exponent
0,511788.285062957,0.7508221,0.01845403,42.79528,7.193718,243.8239,-369.6359,50,given_smb,HIRHAM5-monthly-ERA5_1975_2021.nc,false,routing,routing,th,0.0001,MAR3.9_CNRM-ESM2_ssp585_ocean_1960-2100_v4.nc,,pseudo_plastic,2.608046,3.309718
1,413549.2915732225,0.7508221,0.01845403,42.79528,7.193718,243.8239,-369.6359,50,given_smb,HIRHAM5-monthly-ERA5_1975_2021.nc,false,routing,routing,th,0.0001,MAR3.9_CNRM-ESM2_ssp585_ocean_1960-2100_v4.nc,,pseudo_plastic,2.608046,3.309718
2,768791.5746236914,0.7508221,0.01845403,42.79528,7.193718,243.8239,-369.6359,50,given_smb,HIRHAM5-monthly-ERA5_1975_2021.nc,false,routing,routing,th,0.0001,MAR3.9_CNRM-ESM2_ssp585_ocean_1960-2100_v4.nc,,pseudo_plastic,2.608046,3.309718
3,473262.5803350274,0.7508221,0.01845403,42.79528,7.193718,243.8239,-369.6359,50,given_smb,HIRHAM5-monthly-ERA5_1975_2021.nc,false,routing,routing,th,0.0001,MAR3.9_CNRM-ESM2_ssp585_ocean_1960-2100_v4.nc,,pseudo_plastic,2.608046,3.309718
4,553638.2941489947,0.7508221,0.01845403,42.79528,7.193718,243.8239,-369.6359,50,given_smb,HIRHAM5-monthly-ERA5_1975_2021.nc,false,routing,routing,th,0.0001,MAR3.9_CNRM-ESM2_ssp585_ocean_1960-2100_v4.nc,,pseudo_plastic,2.608046,3.309718
5,791000.6685506557,0.7508221,0.01845403,42.79528,7.193718,243.8239,-369.6359,50,given_smb,HIRHAM5-monthly-ERA5_1975_2021.nc,false,routing,routing,th,0.0001,MAR3.9_CNRM-ESM2_ssp585_ocean_1960-2100_v4.nc,,pseudo_plastic,2.608046,3.309718
6,387976.39357011183,0.7508221,0.01845403,42.79528,7.193718,243.8239,-369.6359,50,given_smb,HIRHAM5-monthly-ERA5_1975_2021.nc,false,routing,routing,th,0.0001,MAR3.9_CNRM-ESM2_ssp585_ocean_1960-2100_v4.nc,,pseudo_plastic,2.608046,3.309718
7,959085.8891726611,0.7508221,0.01845403,42.79528,7.193718,243.8239,-369.6359,50,given_smb,HIRHAM5-monthly-ERA5_1975_2021.nc,false,routing,routing,th,0.0001,MAR3.9_CNRM-ESM2_ssp585_ocean_1960-2100_v4.nc,,pseudo_plastic,2.608046,3.309718
8,404926.4424908057,0.7508221,0.01845403,42.79528,7.193718,243.8239,-369.6359,50,given_smb,HIRHAM5-monthly-ERA5_1975_2021.nc,false,routing,routing,th,0.0001,MAR3.9_CNRM-ESM2_ssp585_ocean_1960-2100_v4.nc,,pseudo_plastic,2.608046,3.309718
9,576661.3799471083,0.7508221,0.01845403,42.79528,7.193718,243.8239,-369.6359,50,given_smb,HIRHAM5-monthly-ERA5_1975_2021.nc,false,routing,routing,th,0.0001,MAR3.9_CNRM-ESM2_ssp585_ocean_1960-2100_v4.nc,,pseudo_plastic,2.608046,3.309718
10,634439.8631287001,0.7508221,0.01845403,42.79528,7.193718,243.8239,-369.6359,50,given_smb,HIRHAM5-monthly-ERA5_1975_2021.nc,false,routing,routing,th,0.0001,MAR3.9_CNRM-ESM2_ssp585_ocean_1960-2100_v4.nc,,pseudo_plastic,2.608046,3.309718
11,437387.58437544794,0.7508221,0.01845403,42.79528,7.193718,243.8239,-369.6359,50,given_smb,HIRHAM5-monthly-ERA5_1975_2021.nc,false,routing,routing,th,0.0001,MAR3.9_CNRM-ESM2_ssp585_ocean_1960-2100_v4.nc,,pseudo_plastic,2.608046,3.309718
12,279281.04561285884,0.7508221,0.01845403,42.79528,7.193718,243.8239,-369.6359,50,given_smb,HIRHAM5-monthly-ERA5_1975_2021.nc,false,routing,routing,th,0.0001,MAR3.9_CNRM-ESM2_ssp585_ocean_1960-2100_v4.nc,,pseudo_plastic,2.608046,3.309718
13,344788.476213135,0.7508221,0.01845403,42.79528,7.193718,243.8239,-369.6359,50,given_smb,HIRHAM5-monthly-ERA5_1975_2021.nc,false,routing,routing,th,0.0001,MAR3.9_CNRM-ESM2_ssp585_ocean_1960-2100_v4.nc,,pseudo_plastic,2.608046,3.309718
14,908752.9201881171,0.7508221,0.01845403,42.79528,7.193718,243.8239,-369.6359,50,given_smb,HIRHAM5-monthly-ERA5_1975_2021.nc,false,routing,routing,th,0.0001,MAR3.9_CNRM-ESM2_ssp585_ocean_1960-2100_v4.nc,,pseudo_plastic,2.608046,3.309718
15,922468.7082061175,0.7508221,0.01845403,42.79528,7.193718,243.8239,-369.6359,50,given_smb,HIRHAM5-monthly-ERA5_1975_2021.nc,false,routing,routing,th,0.0001,MAR3.9_CNRM-ESM2_ssp585_ocean_1960-2100_v4.nc,,pseudo_plastic,2.608046,3.309718
16,720333.0836497946,0.7508221,0.01845403,42.79528,7.193718,243.8239,-369.6359,50,given_smb,HIRHAM5-monthly-ERA5_1975_2021.nc,false,routing,routing,th,0.0001,MAR3.9_CNRM-ESM2_ssp585_ocean_1960-2100_v4.nc,,pseudo_plastic,2.608046,3.309718
17,668531.2790299421,0.7508221,0.01845403,42.79528,7.193718,243.8239,-369.6359,50,given_smb,HIRHAM5-monthly-ERA5_1975_2021.nc,false,routing,routing,th,0.0001,MAR3.9_CNRM-ESM2_ssp585_ocean_1960-2100_v4.nc,,pseudo_plastic,2.608046,3.309718
18,998392.0896810926,0.7508221,0.01845403,42.79528,7.193718,243.8239,-369.6359,50,given_smb,HIRHAM5-monthly-ERA5_1975_2021.nc,false,routing,routing,th,0.0001,MAR3.9_CNRM-ESM2_ssp585_ocean_1960-2100_v4.nc,,pseudo_plastic,2.608046,3.309718
19,739251.4607608984,0.7508221,0.01845403,42.79528,7.193718,243.8239,-369.6359,50,given_smb,HIRHAM5-monthly-ERA5_1975_2021.nc,false,routing,routing,th,0.0001,MAR3.9_CNRM-ESM2_ssp585_ocean_1960-2100_v4.nc,,pseudo_plastic,2.608046,3.309718
20,323934.80454069504,0.7508221,0.01845403,42.79528,7.193718,243.8239,-369.6359,50,given_smb,HIRHAM5-monthly-ERA5_1975_2021.nc,false,routing,routing,th,0.0001,MAR3.9_CNRM-ESM2_ssp585_ocean_1960-2100_v4.nc,,pseudo_plastic,2.608046,3.309718
21,357484.3478287576,0.7508221,0.01845403,42.79528,7.193718,243.8239,-369.6359,50,given_smb,HIRHAM5-monthly-ERA5_1975_2021.nc,false,routing,routing,th,0.0001,MAR3.9_CNRM-ESM2_ssp585_ocean_1960-2100_v4.nc,,pseudo_plastic,2.608046,3.309718
22,947550.3906656842,0.7508221,0.01845403,42.79528,7.193718,243.8239,-369.6359,50,given_smb,HIRHAM5-monthly-ERA5_1975_2021.nc,false,routing,routing,th,0.0001,MAR3.9_CNRM-ESM2_ssp585_ocean_1960-2100_v4.nc,,pseudo_plastic,2.608046,3.309718
23,390728.6842521464,0.7508221,0.01845403,42.79528,7.193718,243.8239,-369.6359,50,given_smb,HIRHAM5-monthly-ERA5_1975_2021.nc,false,routing,routing,th,0.0001,MAR3.9_CNRM-ESM2_ssp585_ocean_1960-2100_v4.nc,,pseudo_plastic,2.608046,3.309718
24,912951.4212684989,0.7508221,0.01845403,42.79528,7.193718,243.8239,-369.6359,50,given_smb,HIRHAM5-monthly-ERA5_1975_2021.nc,false,routing,routing,th,0.0001,MAR3.9_CNRM-ESM2_ssp585_ocean_1960-2100_v4.nc,,pseudo_plastic,2.608046,3.309718
25,319307.12683877634,0.7508221,0.01845403,42.79528,7.193718,243.8239,-369.6359,50,given_smb,HIRHAM5-monthly-ERA5_1975_2021.nc,false,routing,routing,th,0.0001,MAR3.9_CNRM-ESM2_ssp585_ocean_1960-2100_v4.nc,,pseudo_plastic,2.608046,3.309718
26,863403.65767972,0.7508221,0.01845403,42.79528,7.193718,243.8239,-369.6359,50,given_smb,HIRHAM5-monthly-ERA5_1975_2021.nc,false,routing,routing,th,0.0001,MAR3.9_CNRM-ESM2_ssp585_ocean_1960-2100_v4.nc,,pseudo_plastic,2.608046,3.309718
27,266079.83924354846,0.7508221,0.01845403,42.79528,7.193718,243.8239,-369.6359,50,given_smb,HIRHAM5-monthly-ERA5_1975_2021.nc,false,routing,routing,th,0.0001,MAR3.9_CNRM-ESM2_ssp585_ocean_1960-2100_v4.nc,,pseudo_plastic,2.608046,3.309718
28,626840.3167242075,0.7508221,0.01845403,42.79528,7.193718,243.8239,-369.6359,50,given_smb,HIRHAM5-monthly-ERA5_1975_2021.nc,false,routing,routing,th,0.0001,MAR3.9_CNRM-ESM2_ssp585_ocean_1960-2100_v4.nc,,pseudo_plastic,2.608046,3.309718
29,879349.2696913778,0.7508221,0.01845403,42.79528,7.193718,243.8239,-369.6359,50,given_smb,HIRHAM5-monthly-ERA5_1975_2021.nc,false,routing,routing,th,0.0001,MAR3.9_CNRM-ESM2_ssp585_ocean_1960-2100_v4.nc,,pseudo_plastic,2.608046,3.309718
30,250744.33342706467,0.7508221,0.01845403,42.79528,7.193718,243.8239,-369.6359,50,given_smb,HIRHAM5-monthly-ERA5_1975_2021.nc,false,routing,routing,th,0.0001,MAR3.9_CNRM-ESM2_ssp585_ocean_1960-2100_v4.nc,,pseudo_plastic,2.608046,3.309718
31,988200.8917490965,0.7508221,0.01845403,42.79528,7.193718,243.8239,-369.6359,50,given_smb,HIRHAM5-monthly-ERA5_1975_2021.nc,false,routing,routing,th,0.0001,MAR3.9_CNRM-ESM2_ssp585_ocean_1960-2100_v4.nc,,pseudo_plastic,2.608046,3.309718
32,656857.0341486724,0.7508221,0.01845403,42.79528,7.193718,243.8239,-369.6359,50,given_smb,HIRHAM5-monthly-ERA5_1975_2021.nc,false,routing,routing,th,0.0001,MAR3.9_CNRM-ESM2_ssp585_ocean_1960-2100_v4.nc,,pseudo_plastic,2.608046,3.309718
33,565775.7082354125,0.7508221,0.01845403,42.79528,7.193718,243.8239,-369.6359,50,given_smb,HIRHAM5-monthly-ERA5_1975_2021.nc,false,routing,routing,th,0.0001,MAR3.9_CNRM-ESM2_ssp585_ocean_1960-2100_v4.nc,,pseudo_plastic,2.608046,3.309718
34,295940.1457261587,0.7508221,0.01845403,42.79528,7.193718,243.8239,-369.6359,50,given_smb,HIRHAM5-monthly-ERA5_1975_2021.nc,false,routing,routing,th,0.0001,MAR3.9_CNRM-ESM2_ssp585_ocean_1960-2100_v4.nc,,pseudo_plastic,2.608046,3.309718
35,522822.5660403131,0.7508221,0.01845403,42.79528,7.193718,243.8239,-369.6359,50,given_smb,HIRHAM5-monthly-ERA5_1975_2021.nc,false,routing,routing,th,0.0001,MAR3.9_CNRM-ESM2_ssp585_ocean_1960-2100_v4.nc,,pseudo_plastic,2.608046,3.309718
36,487133.52743045863,0.7508221,0.01845403,42.79528,7.193718,243.8239,-369.6359,50,given_smb,HIRHAM5-monthly-ERA5_1975_2021.nc,false,routing,routing,th,0.0001,MAR3.9_CNRM-ESM2_ssp585_ocean_1960-2100_v4.nc,,pseudo_plastic,2.608046,3.309718
37,502960.35048305796,0.7508221,0.01845403,42.79528,7.193718,243.8239,-369.6359,50,given_smb,HIRHAM5-monthly-ERA5_1975_2021.nc,false,routing,routing,th,0.0001,MAR3.9_CNRM-ESM2_ssp585_ocean_1960-2100_v4.nc,,pseudo_plastic,2.608046,3.309718
38,756317.9570850641,0.7508221,0.01845403,42.79528,7.193718,243.8239,-369.6359,50,given_smb,HIRHAM5-monthly-ERA5_1975_2021.nc,false,routing,routing,th,0.0001,MAR3.9_CNRM-ESM2_ssp585_ocean_1960-2100_v4.nc,,pseudo_plastic,2.608046,3.309718
39,611470.0699322382,0.7508221,0.01845403,42.79528,7.193718,243.8239,-369.6359,50,given_smb,HIRHAM5-monthly-ERA5_1975_2021.nc,false,routing,routing,th,0.0001,MAR3.9_CNRM-ESM2_ssp585_ocean_1960-2100_v4.nc,,pseudo_plastic,2.608046,3.309718
40,788524.477976159,0.7508221,0.01845403,42.79528,7.193718,243.8239,-369.6359,50,given_smb,HIRHAM5-monthly-ERA5_1975_2021.nc,false,routing,routing,th,0.0001,MAR3.9_CNRM-ESM2_ssp585_ocean_1960-2100_v4.nc,,pseudo_plastic,2.608046,3.309718
41,826775.5998727971,0.7508221,0.01845403,42.79528,7.193718,243.8239,-369.6359,50,given_smb,HIRHAM5-monthly-ERA5_1975_2021.nc,false,routing,routing,th,0.0001,MAR3.9_CNRM-ESM2_ssp585_ocean_1960-2100_v4.nc,,pseudo_plastic,2.608046,3.309718
42,835267.1074099727,0.7508221,0.01845403,42.79528,7.193718,243.8239,-369.6359,50,given_smb,HIRHAM5-monthly-ERA5_1975_2021.nc,false,routing,routing,th,0.0001,MAR3.9_CNRM-ESM2_ssp585_ocean_1960-2100_v4.nc,,pseudo_plastic,2.608046,3.309718
43,462574.69924317196,0.7508221,0.01845403,42.79528,7.193718,243.8239,-369.6359,50,given_smb,HIRHAM5-monthly-ERA5_1975_2021.nc,false,routing,routing,th,0.0001,MAR3.9_CNRM-ESM2_ssp585_ocean_1960-2100_v4.nc,,pseudo_plastic,2.608046,3.309718
44,894725.800404419,0.7508221,0.01845403,42.79528,7.193718,243.8239,-369.6359,50,given_smb,HIRHAM5-monthly-ERA5_1975_2021.nc,false,routing,routing,th,0.0001,MAR3.9_CNRM-ESM2_ssp585_ocean_1960-2100_v4.nc,,pseudo_plastic,2.608046,3.309718
45,776069.0361111229,0.7508221,0.01845403,42.79528,7.193718,243.8239,-369.6359,50,given_smb,HIRHAM5-monthly-ERA5_1975_2021.nc,false,routing,routing,th,0.0001,MAR3.9_CNRM-ESM2_ssp585_ocean_1960-2100_v4.nc,,pseudo_plastic,2.608046,3.309718
46,494583.1873067238,0.7508221,0.01845403,42.79528,7.193718,243.8239,-369.6359,50,given_smb,HIRHAM5-monthly-ERA5_1975_2021.nc,false,routing,routing,th,0.0001,MAR3.9_CNRM-ESM2_ssp585_ocean_1960-2100_v4.nc,,pseudo_plastic,2.608046,3.309718
47,846613.8848570993,0.7508221,0.01845403,42.79528,7.193718,243.8239,-369.6359,50,given_smb,HIRHAM5-monthly-ERA5_1975_2021.nc,false,routing,routing,th,0.0001,MAR3.9_CNRM-ESM2_ssp585_ocean_1960-2100_v4.nc,,pseudo_plastic,2.608046,3.309718
48,309810.9828341377,0.7508221,0.01845403,42.79528,7.193718,243.8239,-369.6359,50,given_smb,HIRHAM5-monthly-ERA5_1975_2021.nc,false,routing,routing,th,0.0001,MAR3.9_CNRM-ESM2_ssp585_ocean_1960-2100_v4.nc,,pseudo_plastic,2.608046,3.309718
49,603829.6772833196,0.7508221,0.01845403,42.79528,7.193718,243.8239,-369.6359,50,given_smb,HIRHAM5-monthly-ERA5_1975_2021.nc,false,routing,routing,th,0.0001,MAR3.9_CNRM-ESM2_ssp585_ocean_1960-2100_v4.nc,,pseudo_plastic,2.608046,3.309718
50,599458.6597988462,0.7508221,0.01845403,42.79528,7.193718,243.8239,-369.6359,50,given_smb,HIRHAM5-monthly-ERA5_1975_2021.nc,false,routing,routing,th,0.0001,MAR3.9_CNRM-ESM2_ssp585_ocean_1960-2100_v4.nc,,pseudo_plastic,2.608046,3.309718
51,337759.9182983474,0.7508221,0.01845403,42.79528,7.193718,243.8239,-369.6359,50,given_smb,HIRHAM5-monthly-ERA5_1975_2021.nc,false,routing,routing,th,0.0001,MAR3.9_CNRM-ESM2_ssp585_ocean_1960-2100_v4.nc,,pseudo_plastic,2.608046,3.309718
52,934367.7881977265,0.7508221,0.01845403,42.79528,7.193718,243.8239,-369.6359,50,given_smb,HIRHAM5-monthly-ERA5_1975_2021.nc,false,routing,routing,th,0.0001,MAR3.9_CNRM-ESM2_ssp585_ocean_1960-2100_v4.nc,,pseudo_plastic,2.608046,3.309718
53,649881.6693790101,0.7508221,0.01845403,42.79528,7.193718,243.8239,-369.6359,50,given_smb,HIRHAM5-monthly-ERA5_1975_2021.nc,false,routing,routing,th,0.0001,MAR3.9_CNRM-ESM2_ssp585_ocean_1960-2100_v4.nc,,pseudo_plastic,2.608046,3.309718
54,684328.1476983634,0.7508221,0.01845403,42.79528,7.193718,243.8239,-369.6359,50,given_smb,HIRHAM5-monthly-ERA5_1975_2021.nc,false,routing,routing,th,0.0001,MAR3.9_CNRM-ESM2_ssp585_ocean_1960-2100_v4.nc,,pseudo_plastic,2.608046,3.309718
55,440847.5690093635,0.7508221,0.01845403,42.79528,7.193718,243.8239,-369.6359,50,given_smb,HIRHAM5-monthly-ERA5_1975_2021.nc,false,routing,routing,th,0.0001,MAR3.9_CNRM-ESM2_ssp585_ocean_1960-2100_v4.nc,,pseudo_plastic,2.608046,3.309718
56,965220.6386162759,0.7508221,0.01845403,42.79528,7.193718,243.8239,-369.6359,50,given_smb,HIRHAM5-monthly-ERA5_1975_2021.nc,false,routing,routing,th,0.0001,MAR3.9_CNRM-ESM2_ssp585_ocean_1960-2100_v4.nc,,pseudo_plastic,2.608046,3.309718
57,452581.12858116743,0.7508221,0.01845403,42.79528,7.193718,243.8239,-369.6359,50,given_smb,HIRHAM5-monthly-ERA5_1975_2021.nc,false,routing,routing,th,0.0001,MAR3.9_CNRM-ESM2_ssp585_ocean_1960-2100_v4.nc,,pseudo_plastic,2.608046,3.309718
58,856413.9259178928,0.7508221,0.01845403,42.79528,7.193718,243.8239,-369.6359,50,given_smb,HIRHAM5-monthly-ERA5_1975_2021.nc,false,routing,routing,th,0.0001,MAR3.9_CNRM-ESM2_ssp585_ocean_1960-2100_v4.nc,,pseudo_plastic,2.608046,3.309718
59,697729.8434048302,0.7508221,0.01845403,42.79528,7.193718,243.8239,-369.6359,50,given_smb,HIRHAM5-monthly-ERA5_1975_2021.nc,false,routing,routing,th,0.0001,MAR3.9_CNRM-ESM2_ssp585_ocean_1960-2100_v4.nc,,pseudo_plastic,2.608046,3.309718
60,285671.4711955865,0.7508221,0.01845403,42.79528,7.193718,243.8239,-369.6359,50,given_smb,HIRHAM5-monthly-ERA5_1975_2021.nc,false,routing,routing,th,0.0001,MAR3.9_CNRM-ESM2_ssp585_ocean_1960-2100_v4.nc,,pseudo_plastic,2.608046,3.309718
61,378706.4311053603,0.7508221,0.01845403,42.79528,7.193718,243.8239,-369.6359,50,given_smb,HIRHAM5-monthly-ERA5_1975_2021.nc,false,routing,routing,th,0.0001,MAR3.9_CNRM-ESM2_ssp585_ocean_1960-2100_v4.nc,,pseudo_plastic,2.608046,3.309718
62,741654.4246245238,0.7508221,0.01845403,42.79528,7.193718,243.8239,-369.6359,50,given_smb,HIRHAM5-monthly-ERA5_1975_2021.nc,false,routing,routing,th,0.0001,MAR3.9_CNRM-ESM2_ssp585_ocean_1960-2100_v4.nc,,pseudo_plastic,2.608046,3.309718
63,589814.3147817983,0.7508221,0.01845403,42.79528,7.193718,243.8239,-369.6359,50,given_smb,HIRHAM5-monthly-ERA5_1975_2021.nc,false,routing,routing,th,0.0001,MAR3.9_CNRM-ESM2_ssp585_ocean_1960-2100_v4.nc,,pseudo_plastic,2.608046,3.309718
64,360509.05782221275,0.7508221,0.01845403,42.79528,7.193718,243.8239,-369.6359,50,given_smb,HIRHAM5-monthly-ERA5_1975_2021.nc,false,routing,routing,th,0.0001,MAR3.9_CNRM-ESM2_ssp585_ocean_1960-2100_v4.nc,,pseudo_plastic,2.608046,3.309718
65,802979.2422490277,0.7508221,0.01845403,42.79528,7.193718,243.8239,-369.6359,50,given_smb,HIRHAM5-monthly-ERA5_1975_2021.nc,false,routing,routing,th,0.0001,MAR3.9_CNRM-ESM2_ssp585_ocean_1960-2100_v4.nc,,pseudo_plastic,2.608046,3.309718
66,545132.4995747901,0.7508221,0.01845403,42.79528,7.193718,243.8239,-369.6359,50,given_smb,HIRHAM5-monthly-ERA5_1975_2021.nc,false,routing,routing,th,0.0001,MAR3.9_CNRM-ESM2_ssp585_ocean_1960-2100_v4.nc,,pseudo_plastic,2.608046,3.309718
67,716659.5295727483,0.7508221,0.01845403,42.79528,7.193718,243.8239,-369.6359,50,given_smb,HIRHAM5-monthly-ERA5_1975_2021.nc,false,routing,routing,th,0.0001,MAR3.9_CNRM-ESM2_ssp585_ocean_1960-2100_v4.nc,,pseudo_plastic,2.608046,3.309718
68,708774.9496588772,0.7508221,0.01845403,42.79528,7.193718,243.8239,-369.6359,50,given_smb,HIRHAM5-monthly-ERA5_1975_2021.nc,false,routing,routing,th,0.0001,MAR3.9_CNRM-ESM2_ssp585_ocean_1960-2100_v4.nc,,pseudo_plastic,2.608046,3.309718
69,881652.7883809572,0.7508221,0.01845403,42.79528,7.193718,243.8239,-369.6359,50,given_smb,HIRHAM5-monthly-ERA5_1975_2021.nc,false,routing,routing,th,0.0001,MAR3.9_CNRM-ESM2_ssp585_ocean_1960-2100_v4.nc,,pseudo_plastic,2.608046,3.309718
70,428507.8384029489,0.7508221,0.01845403,42.79528,7.193718,243.8239,-369.6359,50,given_smb,HIRHAM5-monthly-ERA5_1975_2021.nc,false,routing,routing,th,0.0001,MAR3.9_CNRM-ESM2_ssp585_ocean_1960-2100_v4.nc,,pseudo_plastic,2.608046,3.309718
71,677228.4184923277,0.7508221,0.01845403,42.79528,7.193718,243.8239,-369.6359,50,given_smb,HIRHAM5-monthly-ERA5_1975_2021.nc,false,routing,routing,th,0.0001,MAR3.9_CNRM-ESM2_ssp585_ocean_1960-2100_v4.nc,,pseudo_plastic,2.608046,3.309718
72,531487.7570868954,0.7508221,0.01845403,42.79528,7.193718,243.8239,-369.6359,50,given_smb,HIRHAM5-monthly-ERA5_1975_2021.nc,false,routing,routing,th,0.0001,MAR3.9_CNRM-ESM2_ssp585_ocean_1960-2100_v4.nc,,pseudo_plastic,2.608046,3.309718
73,972408.6264292885,0.7508221,0.01845403,42.79528,7.193718,243.8239,-369.6359,50,given_smb,HIRHAM5-monthly-ERA5_1975_2021.nc,false,routing,routing,th,0.0001,MAR3.9_CNRM-ESM2_ssp585_ocean_1960-2100_v4.nc,,pseudo_plastic,2.608046,3.309718
74,811097.9764675903,0.7508221,0.01845403,42.79528,7.193718,243.8239,-369.6359,50,given_smb,HIRHAM5-monthly-ERA5_1975_2021.nc,false,routing,routing,th,0.0001,MAR3.9_CNRM-ESM2_ssp585_ocean_1960-2100_v4.nc,,pseudo_plastic,2.608046,3.309718
