id,prescribed_retreat_file,calving.vonmises_calving.sigma_max,ocean.th.gamma_T,ocean_file,frontal_melt.routing.parameter_a,frontal_melt.routing.parameter_b,frontal_melt.routing.power_alpha,frontal_melt.routing.power_beta,delta_T,frac_P,surface.pdd.factor_ice,surface.pdd.factor_snow,surface.pdd.std_dev.value,climate,hydrology,ocean,climate_file,salinity,fractures,frontal_melt,ocean.models,surface.pdd.refreeze,sliding_law
MEDIAN-FREE,pism_g450m_frontretreat_calfin_1972_2019.nc,444271.9798411287,0.00010004147707399642,ACCESS1-3_rcp85,0.0003005448636762567,1.359797807777301,0.5718742215406716,1.4538306046369982,-0.004559706726063206,0.9998251813419846,8.006991326780355,3.2423633548136017,"dict_values(['pism_g450m_frontretreat_calfin_1972_2019.nc', ''])",given_pdd_delta,routing,constant,RACMO2.3p2_ERA5_FGRN055_1940_2023.nc,34,false,routing,th,0.6,pseudo_plastic
MEDIAN-PRESCRIBED,pism_g450m_frontretreat_calfin_1972_2019.nc,444271.9798411287,0.00010004147707399642,ACCESS1-3_rcp85,0.0003005448636762567,1.359797807777301,0.5718742215406716,1.4538306046369982,-0.004559706726063206,0.9998251813419846,8.006991326780355,3.2423633548136017,"dict_values(['pism_g450m_frontretreat_calfin_1972_2019.nc', ''])",given_pdd_delta,routing,constant,RACMO2.3p2_ERA5_FGRN055_1940_2023.nc,34,false,routing,th,0.6,pseudo_plastic
