id,prescribed_retreat_file,calving.vonmises_calving.sigma_max,delta_T,frac_P,surface.pdd.factor_ice,surface.pdd.factor_snow,surface.pdd.std_dev.value,stress_balance.sia.enhancement_factor,stress_balance.ssa.Glen_exponent,basal_resistance.pseudo_plastic.q,basal_yield_stress.mohr_coulomb.till_effective_fraction_overburden,basal_yield_stress.mohr_coulomb.topg_to_phi.phi_min,basal_yield_stress.mohr_coulomb.topg_to_phi.phi_max,basal_yield_stress.mohr_coulomb.topg_to_phi.topg_min,basal_yield_stress.mohr_coulomb.topg_to_phi.topg_max,climate,hydrology,ocean,climate_file,salinity,fractures,frontal_melt,ocean.th.gamma_T,ocean.models,ocean_file,surface.pdd.refreeze,sliding_law
0,pism_g450m_frontretreat_calfin_1972_2019.nc,464518.43545010686,0.2689208695329599,1.0028655172891443,10.734344073684277,0.5869269811738388,3.242900013909603,2.6731915,3.3336957,0.71374685,0.020420128,9.679233,43.817226,-307.06287,298.02063,given_pdd_delta,diffuse,constant,RACMO2.3p2_ERA5_FGRN055_1940_2023.nc,34,false,off,0.0001,const,MAR3.9_CNRM-ESM2_ssp585_ocean_1960-2100_v4.nc,0.6,pseudo_plastic
1,,318307.42521649104,0.5804909043217266,0.9803832334952174,6.554994580080039,5.271311987171265,2.496567918409897,2.6133735,3.2542698,0.6325467,0.015557906,6.8833156,43.150124,-445.05423,303.7567,given_pdd_delta,diffuse,constant,RACMO2.3p2_ERA5_FGRN055_1940_2023.nc,34,false,off,0.0001,const,MAR3.9_CNRM-ESM2_ssp585_ocean_1960-2100_v4.nc,0.6,pseudo_plastic
2,pism_g450m_frontretreat_calfin_1972_2019.nc,483486.51978529943,0.45870789481560825,1.008894583416161,9.270878717758798,0.7910108365455616,4.945367558032995,2.459514,3.282283,0.80369896,0.016608898,4.999561,42.113277,-329.1879,100.9712,given_pdd_delta,diffuse,constant,RACMO2.3p2_ERA5_FGRN055_1940_2023.nc,34,false,off,0.0001,const,MAR3.9_CNRM-ESM2_ssp585_ocean_1960-2100_v4.nc,0.6,pseudo_plastic
3,pism_g450m_frontretreat_calfin_1972_2019.nc,550403.5735450997,0.9547820130968103,0.995585003082143,10.289704288758408,3.2043302799104123,3.3564910867469986,2.8418217,3.2717927,0.88733876,0.0151189,6.9367933,41.818104,-424.022,77.02394,given_pdd_delta,diffuse,constant,RACMO2.3p2_ERA5_FGRN055_1940_2023.nc,34,false,off,0.0001,const,MAR3.9_CNRM-ESM2_ssp585_ocean_1960-2100_v4.nc,0.6,pseudo_plastic
4,,582373.7437475262,-0.22159697635960252,1.0230807554980836,8.170048878416313,4.736427721180247,3.8710188045712255,2.9536533,3.2620523,0.80443937,0.017271766,6.308106,44.34983,-397.50742,220.72534,given_pdd_delta,diffuse,constant,RACMO2.3p2_ERA5_FGRN055_1940_2023.nc,34,false,off,0.0001,const,MAR3.9_CNRM-ESM2_ssp585_ocean_1960-2100_v4.nc,0.6,pseudo_plastic
5,,337799.42330674164,-0.5110516634176774,0.9984208500523963,11.232137600445979,5.579919347253912,5.814977870091472,2.5761511,3.2803805,0.7111798,0.019207971,5.772349,43.846306,-335.61328,216.54335,given_pdd_delta,diffuse,constant,RACMO2.3p2_ERA5_FGRN055_1940_2023.nc,34,false,off,0.0001,const,MAR3.9_CNRM-ESM2_ssp585_ocean_1960-2100_v4.nc,0.6,pseudo_plastic
6,pism_g450m_frontretreat_calfin_1972_2019.nc,301446.387014214,-0.9072076471326489,0.9915345000606058,11.959431290746199,3.2904950481758,1.2239790569266473,1.9161998,3.2996895,0.73056024,0.013605105,6.6748304,44.25522,-529.6071,211.84181,given_pdd_delta,diffuse,constant,RACMO2.3p2_ERA5_FGRN055_1940_2023.nc,34,false,off,0.0001,const,MAR3.9_CNRM-ESM2_ssp585_ocean_1960-2100_v4.nc,0.6,pseudo_plastic
7,pism_g450m_frontretreat_calfin_1972_2019.nc,513338.33751090616,0.3658573173416513,1.0100853143121025,4.098641598104597,5.748578074343793,3.515091951205491,2.6099641,3.2910388,0.6399706,0.020839872,6.8954606,42.266678,-408.73456,225.26578,given_pdd_delta,diffuse,constant,RACMO2.3p2_ERA5_FGRN055_1940_2023.nc,34,false,off,0.0001,const,MAR3.9_CNRM-ESM2_ssp585_ocean_1960-2100_v4.nc,0.6,pseudo_plastic
8,,411437.07819350716,-0.7841204395718888,1.0159421958389745,4.6071021387650095,2.2303101906650715,2.899600946065183,2.215987,3.3060703,0.83366615,0.012862137,8.400782,41.63814,-464.1574,144.82513,given_pdd_delta,diffuse,constant,RACMO2.3p2_ERA5_FGRN055_1940_2023.nc,34,false,off,0.0001,const,MAR3.9_CNRM-ESM2_ssp585_ocean_1960-2100_v4.nc,0.6,pseudo_plastic
9,,426148.3948033487,-0.10555548696996675,0.9760128908909877,7.974278265809245,4.184780395722646,4.291792756375326,2.050849,3.2912765,0.7577442,0.017021418,8.291048,40.842983,-451.31094,255.10318,given_pdd_delta,diffuse,constant,RACMO2.3p2_ERA5_FGRN055_1940_2023.nc,34,false,off,0.0001,const,MAR3.9_CNRM-ESM2_ssp585_ocean_1960-2100_v4.nc,0.6,pseudo_plastic
10,,399777.87905873137,0.7716989666323517,1.0221977135515576,5.166576592571126,2.719249991971343,1.399958749245339,2.089609,3.3016255,0.7664041,0.01508465,8.86846,43.02151,-327.29596,159.89682,given_pdd_delta,diffuse,constant,RACMO2.3p2_ERA5_FGRN055_1940_2023.nc,34,false,off,0.0001,const,MAR3.9_CNRM-ESM2_ssp585_ocean_1960-2100_v4.nc,0.6,pseudo_plastic
11,pism_g450m_frontretreat_calfin_1972_2019.nc,448016.14536758396,-0.47992626071658906,1.0023654785722804,5.652267261657633,2.4790301179218606,5.19363068152788,2.3183947,3.3434508,0.6321556,0.018045157,7.8717127,40.319332,-337.525,123.74964,given_pdd_delta,diffuse,constant,RACMO2.3p2_ERA5_FGRN055_1940_2023.nc,34,false,off,0.0001,const,MAR3.9_CNRM-ESM2_ssp585_ocean_1960-2100_v4.nc,0.6,pseudo_plastic
12,,567309.6732430352,0.6520032255681831,1.0055073796546634,6.8862101025266,3.6159817101138216,4.0156999909371285,2.9157693,3.3766615,0.69293344,0.019709297,13.274224,40.853676,-288.80463,99.53406,given_pdd_delta,diffuse,constant,RACMO2.3p2_ERA5_FGRN055_1940_2023.nc,34,false,off,0.0001,const,MAR3.9_CNRM-ESM2_ssp585_ocean_1960-2100_v4.nc,0.6,pseudo_plastic
13,pism_g450m_frontretreat_calfin_1972_2019.nc,472208.6267084334,0.17372660502072002,1.0181170407042641,6.1429376819182755,1.2357475107857487,4.5761722779588325,2.640228,3.2803428,0.766336,0.019966362,5.969506,43.14012,-386.826,257.63596,given_pdd_delta,diffuse,constant,RACMO2.3p2_ERA5_FGRN055_1940_2023.nc,34,false,off,0.0001,const,MAR3.9_CNRM-ESM2_ssp585_ocean_1960-2100_v4.nc,0.6,pseudo_plastic
14,pism_g450m_frontretreat_calfin_1972_2019.nc,592601.2719519252,-0.048086360553025176,0.9836284344027229,9.726918989131491,4.997790195946338,2.2326463287182765,2.0831108,3.3121848,0.70613563,0.0141971875,7.1674514,42.807346,-372.63037,138.88835,given_pdd_delta,diffuse,constant,RACMO2.3p2_ERA5_FGRN055_1940_2023.nc,34,false,off,0.0001,const,MAR3.9_CNRM-ESM2_ssp585_ocean_1960-2100_v4.nc,0.6,pseudo_plastic
15,,389817.7548271939,0.8669940261392373,0.9933202231155525,9.069205062356659,3.8637014520934065,1.622669686926177,2.0675209,3.3259206,0.621246,0.018134061,7.301594,43.592045,-571.95355,382.78278,given_pdd_delta,diffuse,constant,RACMO2.3p2_ERA5_FGRN055_1940_2023.nc,34,false,off,0.0001,const,MAR3.9_CNRM-ESM2_ssp585_ocean_1960-2100_v4.nc,0.6,pseudo_plastic
16,,528213.6975747043,0.08852357833667535,0.9894291754517438,8.602906632437813,1.3318694012994565,2.5236851158466083,3.162585,3.3448334,0.8047166,0.018766435,10.370526,42.708378,-279.24,274.969,given_pdd_delta,diffuse,constant,RACMO2.3p2_ERA5_FGRN055_1940_2023.nc,34,false,off,0.0001,const,MAR3.9_CNRM-ESM2_ssp585_ocean_1960-2100_v4.nc,0.6,pseudo_plastic
17,,367752.5254262766,-0.8733395898346005,0.9850644608389421,7.5530721961274665,4.3829747247913495,5.727563203621506,2.5597715,3.2844992,0.70606554,0.02348471,8.589707,40.727806,-411.29922,356.73804,given_pdd_delta,diffuse,constant,RACMO2.3p2_ERA5_FGRN055_1940_2023.nc,34,false,off,0.0001,const,MAR3.9_CNRM-ESM2_ssp585_ocean_1960-2100_v4.nc,0.6,pseudo_plastic
18,pism_g450m_frontretreat_calfin_1972_2019.nc,504890.35449243814,-0.6149661344589734,0.9785260331901167,5.414319359211586,1.8009515978312898,1.80492826498716,3.2969317,3.3241963,0.7149143,0.01883932,5.75776,42.472115,-406.05124,85.27718,given_pdd_delta,diffuse,constant,RACMO2.3p2_ERA5_FGRN055_1940_2023.nc,34,false,off,0.0001,const,MAR3.9_CNRM-ESM2_ssp585_ocean_1960-2100_v4.nc,0.6,pseudo_plastic
19,pism_g450m_frontretreat_calfin_1972_2019.nc,352674.3478835146,-0.32498437504274813,1.0139189596486013,11.113705286391157,2.134373292095554,5.419841930345916,2.5793147,3.3295634,0.823193,0.013286009,5.502138,44.016273,-515.6637,124.94082,given_pdd_delta,diffuse,constant,RACMO2.3p2_ERA5_FGRN055_1940_2023.nc,34,false,off,0.0001,const,MAR3.9_CNRM-ESM2_ssp585_ocean_1960-2100_v4.nc,0.6,pseudo_plastic
