id,calving.vonmises_calving.sigma_max,delta_T,frac_P,surface.pdd.factor_ice,surface.pdd.factor_snow,surface.pdd.std_dev.value,climate,hydrology,ocean,climate_file,salinity,fractures,frontal_melt,ocean.th.gamma_T,ocean.models,ocean_file,prescribed_retreat_file,surface.pdd.refreeze,sliding_law
MEDIAN-FREE,526951.9577907727,-0.060473895460054994,1.0970457012308013,ACCESS1-3_rcp85,2.766018131347731,"dict_values(['pism_g450m_frontretreat_calfin_1972_2019.nc', ''])",given_pdd_delta,diffuse,constant,RACMO2.3p2_ERA5_FGRN055_1940_2023.nc,34,false,off,0.0001,const,MAR3.9_CNRM-ESM2_ssp585_ocean_1960-2100_v4.nc,pism_g450m_frontretreat_calfin_1972_2019.nc,0.6,pseudo_plastic
MEDIAN-PRESCRIBED,526951.9577907727,-0.060473895460054994,1.0970457012308013,ACCESS1-3_rcp85,2.766018131347731,"dict_values(['pism_g450m_frontretreat_calfin_1972_2019.nc', ''])",given_pdd_delta,diffuse,constant,RACMO2.3p2_ERA5_FGRN055_1940_2023.nc,34,false,off,0.0001,const,MAR3.9_CNRM-ESM2_ssp585_ocean_1960-2100_v4.nc,pism_g450m_frontretreat_calfin_1972_2019.nc,0.6,pseudo_plastic
