id,calving.vonmises_calving.sigma_max,calving.rate_scaling.file,ocean.th.gamma_T,ocean_file,climate_file,frontal_melt.routing.parameter_a,frontal_melt.routing.parameter_b,frontal_melt.routing.power_alpha,frontal_melt.routing.power_beta,basal_resistance.pseudo_plastic.q,basal_yield_stress.mohr_coulomb.till_effective_fraction_overburden,basal_yield_stress.mohr_coulomb.topg_to_phi.phi_max,basal_yield_stress.mohr_coulomb.topg_to_phi.phi_min,basal_yield_stress.mohr_coulomb.topg_to_phi.topg_max,basal_yield_stress.mohr_coulomb.topg_to_phi.topg_min,calving.thickness_calving.threshold,climate,fractures,frontal_melt,hydrology,ocean.models,prescribed_retreat_file,sliding_law,stress_balance.sia.enhancement_factor,stress_balance.ssa.Glen_exponent
MAR,351532.4927595475,seasonal_calving_id_0_1975_2025.nc,9.630379944705512e-05,MAR3.9_HadGEM2-ES_rcp85_ocean_1960-2100_v4.nc,HIRHAM5-monthly-ERA5_1975_2021.nc,0.00031060301446335766,1.065006673002545,0.6109322921027721,1.2957888658603292,0.7508221,0.01845403,42.79528,7.193718,243.8239,-369.6359,50,given_smb,false,routing,routing,th,pism_g450m_frontretreat_calfin_1972_2019.nc,pseudo_plastic,2.608046,3.309718
HIRHAM,351532.4927595475,seasonal_calving_id_0_1975_2025.nc,9.630379944705512e-05,MAR3.9_HadGEM2-ES_rcp85_ocean_1960-2100_v4.nc,MARv3.14-monthly-ERA5-1975_2023.nc,0.00031060301446335766,1.065006673002545,0.6109322921027721,1.2957888658603292,0.7508221,0.01845403,42.79528,7.193718,243.8239,-369.6359,50,given_smb,false,routing,routing,th,pism_g450m_frontretreat_calfin_1972_2019.nc,pseudo_plastic,2.608046,3.309718
RACMO,351532.4927595475,seasonal_calving_id_0_1975_2025.nc,9.630379944705512e-05,MAR3.9_HadGEM2-ES_rcp85_ocean_1960-2100_v4.nc,RACMO2.3p2_ERA5_FGRN055_1940_2023.nc,0.00031060301446335766,1.065006673002545,0.6109322921027721,1.2957888658603292,0.7508221,0.01845403,42.79528,7.193718,243.8239,-369.6359,50,given_smb,false,routing,routing,th,pism_g450m_frontretreat_calfin_1972_2019.nc,pseudo_plastic,2.608046,3.309718
