id,calving.vonmises_calving.sigma_max,calving.rate_scaling.file,ocean.th.gamma_T,ocean_file,climate_file,frontal_melt.routing.parameter_a,frontal_melt.routing.parameter_b,frontal_melt.routing.power_alpha,frontal_melt.routing.power_beta,stress_balance.sia.enhancement_factor,stress_balance.ssa.Glen_exponent,basal_resistance.pseudo_plastic.q,basal_yield_stress.mohr_coulomb.till_effective_fraction_overburden,basal_yield_stress.mohr_coulomb.topg_to_phi.phi_min,basal_yield_stress.mohr_coulomb.topg_to_phi.phi_max,basal_yield_stress.mohr_coulomb.topg_to_phi.topg_min,basal_yield_stress.mohr_coulomb.topg_to_phi.topg_max,calving.thickness_calving.threshold,climate,fractures,frontal_melt,hydrology,ocean.models,prescribed_retreat_file,sliding_law
0,390619.6800312339,seasonal_calving_id_1_1975_2025.nc,0.00014337649434321997,MAR3.9_UKESM1-CM6_ssp585_ocean_1960-2100_v4.nc,DMI-HIRHAM5_ERA_1975_2021_EPSG3413_4500M_MM.nc,0.00025695592478453797,1.1366199781883113,0.4178958866310944,1.4087324902199978,2.511085,3.2498097,0.7819033,0.017249037,5.584997,42.297863,-408.55576,240.9529,50,given_smb,false,routing,routing,th,pism_g450m_frontretreat_calfin_1972_2019.nc,pseudo_plastic
1,575556.1483276351,seasonal_calving_id_2_1975_2025.nc,0.0001173006966187319,MAR3.9_CNRM-ESM2_ssp585_ocean_1960-2100_v4.nc,DMI-HIRHAM5_ERA_1975_2021_EPSG3413_4500M_MM.nc,0.0003118375717344993,1.5188561306414252,0.5247634317181769,2.76725055259348,2.3966198,3.279446,0.6810886,0.019844031,5.0683856,43.94781,-381.18225,337.0493,50,given_smb,false,routing,routing,th,pism_g450m_frontretreat_calfin_1972_2019.nc,pseudo_plastic
2,498403.982402625,seasonal_calving_id_3_1975_2025.nc,0.0001117371113556878,MAR3.9_CNRM-CM6_ssp126_ocean_1960-2100_v4.nc,DMI-HIRHAM5_ERA_1975_2021_EPSG3413_4500M_MM.nc,0.00025529375944490613,1.1752971783228792,0.4659250226893475,2.055545076700656,2.5882828,3.3420377,0.74275297,0.018519236,9.260977,42.719597,-317.78375,105.35237,50,given_smb,false,routing,routing,th,pism_g450m_frontretreat_calfin_1972_2019.nc,pseudo_plastic
3,464866.6146334084,seasonal_calving_id_2_1975_2025.nc,7.689039627904859e-05,MAR3.9_MIROC-ESM-CHEM_rcp85_ocean_1960-2100_v4.nc,MARv3.14-monthly-ERA5-1975_2023.nc,0.0003032794595781147,1.6574463299400723,0.5203236278007177,2.3019089284137815,2.473692,3.2037494,0.8083551,0.013529537,8.892611,42.508896,-328.8921,149.79863,50,given_smb,false,routing,routing,th,pism_g450m_frontretreat_calfin_1972_2019.nc,pseudo_plastic
4,578118.4292782497,seasonal_calving_id_0_1975_2025.nc,0.00014003626661472776,MAR3.9_CNRM-ESM2_ssp585_ocean_1960-2100_v4.nc,MARv3.14-monthly-ERA5-1975_2023.nc,0.0002606886420455418,1.1441230264958044,0.5913086192748465,2.5299862945643605,2.8639498,3.339183,0.7971318,0.017675769,7.7286325,42.596916,-400.08588,144.68855,50,given_smb,false,routing,routing,th,pism_g450m_frontretreat_calfin_1972_2019.nc,pseudo_plastic
5,517186.80105423136,seasonal_calving_id_3_1975_2025.nc,0.00013737272722812998,MAR3.9_HadGEM2-ES_rcp85_ocean_1960-2100_v4.nc,MARv3.14-monthly-ERA5-1975_2023.nc,0.0003197065361839963,1.009563841099547,0.6627371982108019,1.204476277917271,1.8022623,3.28879,0.74371237,0.014195996,7.049148,41.672466,-418.66965,81.992584,50,given_smb,false,routing,routing,th,pism_g450m_frontretreat_calfin_1972_2019.nc,pseudo_plastic
6,384572.4917447066,seasonal_calving_id_6_1975_2025.nc,0.00014688626405713238,MAR3.9_CNRM-CM6_ssp126_ocean_1960-2100_v4.nc,MARv3.14-monthly-ERA5-1975_2023.nc,0.0003006189194261653,1.1495549360667894,0.6025655353983321,1.5681633791390714,2.98665,3.353831,0.6335883,0.022552771,8.634923,41.878174,-371.69293,228.41885,50,given_smb,false,routing,routing,th,pism_g450m_frontretreat_calfin_1972_2019.nc,pseudo_plastic
7,628630.6895004325,seasonal_calving_id_3_1975_2025.nc,0.0001346563955195855,MAR3.9_CNRM-CM6_ssp585_ocean_1960-2100_v4.nc,MARv3.14-monthly-ERA5-1975_2023.nc,0.00035211234286487974,1.1323795023312817,0.534776435122353,2.182797202713923,2.6503363,3.2762005,0.8791075,0.019510334,9.984719,43.644943,-109.23742,104.94463,50,given_smb,false,routing,routing,th,pism_g450m_frontretreat_calfin_1972_2019.nc,pseudo_plastic
8,529678.9970551167,seasonal_calving_id_2_1975_2025.nc,0.00011603059210134736,MAR3.9_IPSL-CM5-MR_rcp85_ocean_1960-2100_v4.nc,MARv3.14-monthly-ERA5-1975_2023.nc,0.0002564314377656979,1.3777803115504008,0.4852326840581218,1.468936624945467,2.668049,3.3244565,0.8169794,0.023958761,5.1653633,42.2968,-292.8076,667.56244,50,given_smb,false,routing,routing,th,pism_g450m_frontretreat_calfin_1972_2019.nc,pseudo_plastic
9,584739.7662903847,seasonal_calving_id_3_1975_2025.nc,0.00013903373506460008,MAR3.9_UKESM1-CM6_ssp585_ocean_1960-2100_v4.nc,MARv3.14-monthly-ERA5-1975_2023.nc,0.00028386911540274315,1.436854227594159,0.34496788537012407,1.6290550143280795,2.5959778,3.3318317,0.9081791,0.017955875,5.32536,42.87075,-314.34863,287.4466,50,given_smb,false,routing,routing,th,pism_g450m_frontretreat_calfin_1972_2019.nc,pseudo_plastic
10,634468.5676095218,seasonal_calving_id_7_1975_2025.nc,8.561916362255552e-05,MAR3.9_CNRM-ESM2_ssp585_ocean_1960-2100_v4.nc,MARv3.14-monthly-ERA5-1975_2023.nc,0.00024372500709155434,1.1155959240040185,0.3588306139152512,1.7219372826118071,3.1242359,3.331162,0.7390728,0.016172716,12.944602,43.356018,-287.87158,67.37619,50,given_smb,false,routing,routing,th,pism_g450m_frontretreat_calfin_1972_2019.nc,pseudo_plastic
11,363360.46665601444,seasonal_calving_id_4_1975_2025.nc,8.270590851908955e-05,MAR3.9_UKESM1-CM6_ssp585_ocean_1960-2100_v4.nc,MARv3.14-monthly-ERA5-1975_2023.nc,0.000338384743129325,1.1618752519034152,0.4040013275139712,1.48524526592978,2.7289636,3.3229778,0.73341644,0.019043138,7.942889,41.025524,-304.0443,306.60727,50,given_smb,false,routing,routing,th,pism_g450m_frontretreat_calfin_1972_2019.nc,pseudo_plastic
12,596090.6624086469,seasonal_calving_id_5_1975_2025.nc,0.00011269461637714984,MAR3.9_CNRM-CM6_ssp126_ocean_1960-2100_v4.nc,DMI-HIRHAM5_ERA_1975_2021_EPSG3413_4500M_MM.nc,0.0002951155105871214,1.276405782785462,0.3335934680694744,2.153483619358486,2.3559673,3.275448,0.8586814,0.016377982,5.8813157,44.394356,-388.5732,83.75921,50,given_smb,false,routing,routing,th,pism_g450m_frontretreat_calfin_1972_2019.nc,pseudo_plastic
13,530695.7377941516,seasonal_calving_id_7_1975_2025.nc,9.56845706390651e-05,MAR3.9_IPSL-CM5-MR_rcp85_ocean_1960-2100_v4.nc,DMI-HIRHAM5_ERA_1975_2021_EPSG3413_4500M_MM.nc,0.0003189080445570503,1.433817178773774,0.48851758036402376,2.334021701820327,3.1804307,3.3175128,0.7397941,0.017313093,8.644298,42.205235,-412.65234,169.85712,50,given_smb,false,routing,routing,th,pism_g450m_frontretreat_calfin_1972_2019.nc,pseudo_plastic
14,570732.016793045,seasonal_calving_id_2_1975_2025.nc,9.248920593872521e-05,MAR3.9_CNRM-CM6_ssp585_ocean_1960-2100_v4.nc,MARv3.14-monthly-ERA5-1975_2023.nc,0.0002916069188570429,1.441547670997132,0.6514819804538707,2.264807457053328,2.2117097,3.2418664,0.73509073,0.020363722,9.877103,41.164284,-339.65137,440.39102,50,given_smb,false,routing,routing,th,pism_g450m_frontretreat_calfin_1972_2019.nc,pseudo_plastic
15,428100.30719100207,seasonal_calving_id_4_1975_2025.nc,0.00012897592656578062,MAR3.9_IPSL-CM5-MR_rcp85_ocean_1960-2100_v4.nc,MARv3.14-monthly-ERA5-1975_2023.nc,0.00028279128866771496,1.5049601987364345,0.5032662774150168,2.114088123228372,2.1777937,3.3076408,0.8266576,0.020246584,7.0455055,43.147774,-336.64755,373.40402,50,given_smb,false,routing,routing,th,pism_g450m_frontretreat_calfin_1972_2019.nc,pseudo_plastic
16,540617.2565889796,seasonal_calving_id_4_1975_2025.nc,9.036809540028134e-05,MAR3.9_CNRM-CM6_ssp126_ocean_1960-2100_v4.nc,DMI-HIRHAM5_ERA_1975_2021_EPSG3413_4500M_MM.nc,0.0002463861460695582,1.6929752916326217,0.449724490260004,1.3658032297010152,2.971981,3.337305,0.71682245,0.018738514,11.791155,40.70152,-182.44484,125.76696,50,given_smb,false,routing,routing,th,pism_g450m_frontretreat_calfin_1972_2019.nc,pseudo_plastic
17,368474.968574075,seasonal_calving_id_4_1975_2025.nc,0.00014945247971596764,MAR3.9_NorESM1-M_rcp85_ocean_1960-2100_v4.nc,DMI-HIRHAM5_ERA_1975_2021_EPSG3413_4500M_MM.nc,0.00027854143966335264,1.2675381263082808,0.441314487265953,2.527405221240496,2.2317317,3.2954764,0.625354,0.015853928,6.974183,43.97167,-449.167,262.00714,50,given_smb,false,routing,routing,th,pism_g450m_frontretreat_calfin_1972_2019.nc,pseudo_plastic
18,548310.6258455736,seasonal_calving_id_7_1975_2025.nc,0.00011368852620257109,MAR3.9_MIROC-ESM-CHEM_rcp85_ocean_1960-2100_v4.nc,MARv3.14-monthly-ERA5-1975_2023.nc,0.00034385310225994766,1.4076032263574612,0.5068282713707464,2.6781252996452967,2.3219016,3.2733917,0.6166517,0.017497538,11.112932,40.906403,-210.25443,139.98888,50,given_smb,false,routing,routing,th,pism_g450m_frontretreat_calfin_1972_2019.nc,pseudo_plastic
19,526394.952681828,seasonal_calving_id_6_1975_2025.nc,0.00010874119737400194,MAR3.9_CSIRO-Mk3.6_rcp85_ocean_1960-2100_v4.nc,DMI-HIRHAM5_ERA_1975_2021_EPSG3413_4500M_MM.nc,0.0003595880574867124,1.4962737359451188,0.690384371868221,2.0947230809210446,2.755355,3.349634,0.8282011,0.01840851,6.5262623,41.218216,-310.21292,144.24341,50,given_smb,false,routing,routing,th,pism_g450m_frontretreat_calfin_1972_2019.nc,pseudo_plastic
20,377599.2033470765,seasonal_calving_id_0_1975_2025.nc,0.00012952829119293382,MAR3.9_MIROC-ESM-CHEM_rcp26_ocean_1960-2100_v4.nc,MARv3.14-monthly-ERA5-1975_2023.nc,0.00034877821188977466,1.1599333675476189,0.3701852758992214,2.5556149875096663,2.718429,3.297084,0.8311957,0.01737943,8.188345,44.05773,-271.16348,123.71613,50,given_smb,false,routing,routing,th,pism_g450m_frontretreat_calfin_1972_2019.nc,pseudo_plastic
21,436362.2619514328,seasonal_calving_id_4_1975_2025.nc,0.00013264376647494482,MAR3.9_MIROC-ESM-CHEM_rcp85_ocean_1960-2100_v4.nc,DMI-HIRHAM5_ERA_1975_2021_EPSG3413_4500M_MM.nc,0.00024767363387689516,1.0630323556950279,0.5950175437176782,2.3929505235045836,1.7455544,3.2724137,0.7874012,0.015075383,6.121968,41.06033,-334.14355,235.06119,50,given_smb,false,routing,routing,th,pism_g450m_frontretreat_calfin_1972_2019.nc,pseudo_plastic
22,467520.9143107673,seasonal_calving_id_7_1975_2025.nc,0.00011533919650436576,MAR3.9_CSIRO-Mk3.6_rcp85_ocean_1960-2100_v4.nc,DMI-HIRHAM5_ERA_1975_2021_EPSG3413_4500M_MM.nc,0.0003449156629054991,1.483689122971557,0.5995385945196783,2.0187493981536893,2.919922,3.2771578,0.7061077,0.015791994,9.655706,42.71289,-501.2005,332.2699,50,given_smb,false,routing,routing,th,pism_g450m_frontretreat_calfin_1972_2019.nc,pseudo_plastic
23,461714.9565868485,seasonal_calving_id_7_1975_2025.nc,9.50367429466133e-05,MAR3.9_NorESM1-M_rcp85_ocean_1960-2100_v4.nc,DMI-HIRHAM5_ERA_1975_2021_EPSG3413_4500M_MM.nc,0.00029647914005511897,1.354628289104055,0.6266531044297126,1.1154436240296286,2.1216588,3.159085,0.5741965,0.018191548,5.3269606,41.314915,-363.7382,134.86395,50,given_smb,false,routing,routing,th,pism_g450m_frontretreat_calfin_1972_2019.nc,pseudo_plastic
24,588155.1934268652,seasonal_calving_id_5_1975_2025.nc,0.00014838427956777886,MAR3.9_IPSL-CM5-MR_rcp85_ocean_1960-2100_v4.nc,DMI-HIRHAM5_ERA_1975_2021_EPSG3413_4500M_MM.nc,0.0002620338013767424,1.057827621921839,0.6928304328214228,1.9428649159765374,2.98815,3.276866,0.6390645,0.020920513,7.16306,44.490685,-413.38818,255.3744,50,given_smb,false,routing,routing,th,pism_g450m_frontretreat_calfin_1972_2019.nc,pseudo_plastic
25,441811.09459252545,seasonal_calving_id_0_1975_2025.nc,8.772372234818536e-05,MAR3.9_UKESM1-CM6_ssp585_ocean_1960-2100_v4.nc,DMI-HIRHAM5_ERA_1975_2021_EPSG3413_4500M_MM.nc,0.0003240122125133144,1.053978638246485,0.6116189585157457,2.6465900134974096,2.7704234,3.3029637,0.6299482,0.017059375,8.247235,43.526485,-512.8694,365.3753,50,given_smb,false,routing,routing,th,pism_g450m_frontretreat_calfin_1972_2019.nc,pseudo_plastic
26,648201.7375645826,seasonal_calving_id_5_1975_2025.nc,0.0001001953504827166,MAR3.9_MIROC-ESM-CHEM_rcp26_ocean_1960-2100_v4.nc,MARv3.14-monthly-ERA5-1975_2023.nc,0.000295569663270368,1.4264700952683598,0.6138591182486615,2.1222625719187693,2.00187,3.3416018,0.71723163,0.017072806,7.8792987,40.53357,-402.15814,319.11993,50,given_smb,false,routing,routing,th,pism_g450m_frontretreat_calfin_1972_2019.nc,pseudo_plastic
27,451318.5062474011,seasonal_calving_id_3_1975_2025.nc,0.0001312468388527842,MAR3.9_ACCESS1-3_rcp85_ocean_1960-2100_v4.nc,MARv3.14-monthly-ERA5-1975_2023.nc,0.00031572318681263357,1.5853002672375034,0.6811646760964478,2.499404660228108,2.5083268,3.2300463,0.78195405,0.020488678,5.220841,42.131382,-343.70752,221.51204,50,given_smb,false,routing,routing,th,pism_g450m_frontretreat_calfin_1972_2019.nc,pseudo_plastic
28,411554.6209255655,seasonal_calving_id_5_1975_2025.nc,0.00013645281364912064,MAR3.9_MIROC-ESM-CHEM_rcp85_ocean_1960-2100_v4.nc,MARv3.14-monthly-ERA5-1975_2023.nc,0.00035338923692493715,1.1831181102116366,0.6981930894974395,1.693182642980535,2.4910357,3.2819183,0.6386826,0.017194131,5.693374,42.60707,-403.00583,140.75906,50,given_smb,false,routing,routing,th,pism_g450m_frontretreat_calfin_1972_2019.nc,pseudo_plastic
29,621834.4801341456,seasonal_calving_id_4_1975_2025.nc,0.00010736921592155708,MAR3.9_UKESM1-CM6_ssp585_ocean_1960-2100_v4.nc,DMI-HIRHAM5_ERA_1975_2021_EPSG3413_4500M_MM.nc,0.0002770189970952786,1.5907760690929384,0.4301338976035849,2.6067994623839668,2.2220557,3.2693007,0.5564604,0.017892776,5.65079,43.15177,-708.0413,416.5777,50,given_smb,false,routing,routing,th,pism_g450m_frontretreat_calfin_1972_2019.nc,pseudo_plastic
30,372706.2633730657,seasonal_calving_id_0_1975_2025.nc,0.00010197456076938606,MAR3.9_NorESM1-M_rcp85_ocean_1960-2100_v4.nc,MARv3.14-monthly-ERA5-1975_2023.nc,0.00034059788510683547,1.6299666503667996,0.4461118714084109,2.421185116193972,2.8015904,3.2492874,0.67819047,0.023082262,9.081965,42.569553,-233.15793,272.8885,50,given_smb,false,routing,routing,th,pism_g450m_frontretreat_calfin_1972_2019.nc,pseudo_plastic
31,493417.4805708196,seasonal_calving_id_1_1975_2025.nc,0.0001241820164918955,MAR3.9_CSIRO-Mk3.6_rcp85_ocean_1960-2100_v4.nc,MARv3.14-monthly-ERA5-1975_2023.nc,0.0002638547564677635,1.3801134640678228,0.5153180470395158,2.7107758032278912,2.4715245,3.3674207,0.7460615,0.01286815,6.6266103,43.89961,-590.1277,216.10814,50,given_smb,false,routing,routing,th,pism_g450m_frontretreat_calfin_1972_2019.nc,pseudo_plastic
32,508773.5125724559,seasonal_calving_id_1_1975_2025.nc,7.624870019031416e-05,MAR3.9_ACCESS1-3_rcp85_ocean_1960-2100_v4.nc,DMI-HIRHAM5_ERA_1975_2021_EPSG3413_4500M_MM.nc,0.00025085603587484675,1.365941361682102,0.3437920383478952,1.758814072078341,3.0025706,3.3209445,0.6908426,0.020450559,5.371906,42.515522,-346.43222,128.16391,50,given_smb,false,routing,routing,th,pism_g450m_frontretreat_calfin_1972_2019.nc,pseudo_plastic
33,565989.9698318926,seasonal_calving_id_0_1975_2025.nc,8.125493309262219e-05,MAR3.9_CNRM-CM6_ssp126_ocean_1960-2100_v4.nc,MARv3.14-monthly-ERA5-1975_2023.nc,0.00025825289721269785,1.6838688597973372,0.6671712870412886,2.1571935370535256,2.5098817,3.3375957,0.8240363,0.019173492,7.9530864,42.202087,-457.65335,340.94516,50,given_smb,false,routing,routing,th,pism_g450m_frontretreat_calfin_1972_2019.nc,pseudo_plastic
34,600570.5215076571,seasonal_calving_id_1_1975_2025.nc,0.00011220609204067848,MAR3.9_CNRM-CM6_ssp585_ocean_1960-2100_v4.nc,DMI-HIRHAM5_ERA_1975_2021_EPSG3413_4500M_MM.nc,0.0002721426629042321,1.5348153008775354,0.35572067339199076,1.819536366367488,2.9379635,3.3108299,0.56551766,0.02268902,7.8155484,42.37613,-433.237,271.9632,50,given_smb,false,routing,routing,th,pism_g450m_frontretreat_calfin_1972_2019.nc,pseudo_plastic
35,624931.6438318894,seasonal_calving_id_6_1975_2025.nc,0.00012358787834106604,MAR3.9_CNRM-CM6_ssp585_ocean_1960-2100_v4.nc,DMI-HIRHAM5_ERA_1975_2021_EPSG3413_4500M_MM.nc,0.0003227377813391303,1.09720309459586,0.3280464638943124,2.078407569381684,2.6221037,3.321661,0.7053129,0.018701263,7.6942844,43.06173,-327.08533,148.46674,50,given_smb,false,routing,routing,th,pism_g450m_frontretreat_calfin_1972_2019.nc,pseudo_plastic
36,612647.1185768137,seasonal_calving_id_6_1975_2025.nc,0.00010065289276365547,MAR3.9_CSIRO-Mk3.6_rcp85_ocean_1960-2100_v4.nc,DMI-HIRHAM5_ERA_1975_2021_EPSG3413_4500M_MM.nc,0.00028076511990841776,1.5697736926515264,0.6865902086942564,1.7947639181465331,2.6445515,3.2792766,0.75889295,0.018614406,5.5702744,42.345367,-435.82455,305.52927,50,given_smb,false,routing,routing,th,pism_g450m_frontretreat_calfin_1972_2019.nc,pseudo_plastic
37,426824.5144874419,seasonal_calving_id_3_1975_2025.nc,9.175474133979743e-05,MAR3.9_UKESM1-CM6_ssp585_ocean_1960-2100_v4.nc,DMI-HIRHAM5_ERA_1975_2021_EPSG3413_4500M_MM.nc,0.00033151879015901823,1.558927083346206,0.6324076652617217,1.889240437744311,2.7832863,3.2886412,0.7837232,0.022114309,12.118266,43.522137,-223.48578,425.92526,50,given_smb,false,routing,routing,th,pism_g450m_frontretreat_calfin_1972_2019.nc,pseudo_plastic
38,356642.06843952235,seasonal_calving_id_6_1975_2025.nc,9.114469595692467e-05,MAR3.9_MIROC-ESM-CHEM_rcp85_ocean_1960-2100_v4.nc,DMI-HIRHAM5_ERA_1975_2021_EPSG3413_4500M_MM.nc,0.00030463843042491975,1.001205079751815,0.6560423026788667,1.7334294032894977,3.1234064,3.342399,0.7896337,0.02145784,7.9145865,41.815086,-314.0284,156.34996,50,given_smb,false,routing,routing,th,pism_g450m_frontretreat_calfin_1972_2019.nc,pseudo_plastic
39,459736.1210955679,seasonal_calving_id_7_1975_2025.nc,0.00012760697827808758,MAR3.9_CNRM-CM6_ssp126_ocean_1960-2100_v4.nc,MARv3.14-monthly-ERA5-1975_2023.nc,0.0003281513567704157,1.316331696506523,0.5782901851112576,1.1302594244891755,2.6925302,3.3403609,0.8034501,0.019285513,6.5615497,43.105,-433.0261,220.15233,50,given_smb,false,routing,routing,th,pism_g450m_frontretreat_calfin_1972_2019.nc,pseudo_plastic
40,432576.94560006494,seasonal_calving_id_5_1975_2025.nc,0.00012156504515307886,MAR3.9_MIROC-ESM-CHEM_rcp26_ocean_1960-2100_v4.nc,MARv3.14-monthly-ERA5-1975_2023.nc,0.00035666492001756053,1.5444101170639994,0.4005099254188094,1.875755971413764,2.7240715,3.300547,0.5942421,0.01723769,9.523023,42.412636,-374.86453,280.2486,50,given_smb,false,routing,routing,th,pism_g450m_frontretreat_calfin_1972_2019.nc,pseudo_plastic
41,592109.821892017,seasonal_calving_id_4_1975_2025.nc,8.056992995784129e-05,MAR3.9_IPSL-CM5-MR_rcp85_ocean_1960-2100_v4.nc,DMI-HIRHAM5_ERA_1975_2021_EPSG3413_4500M_MM.nc,0.000339179624982096,1.6606458026477637,0.5655585472900062,2.3700030541236567,2.6362813,3.295007,0.61085045,0.018712793,7.965763,42.360622,-424.72186,249.10948,50,given_smb,false,routing,routing,th,pism_g450m_frontretreat_calfin_1972_2019.nc,pseudo_plastic
42,415564.6985885716,seasonal_calving_id_6_1975_2025.nc,7.876127211646052e-05,MAR3.9_IPSL-CM5-MR_rcp85_ocean_1960-2100_v4.nc,DMI-HIRHAM5_ERA_1975_2021_EPSG3413_4500M_MM.nc,0.00028560277511984833,1.4612012860716672,0.5199981969443015,1.6553209285394297,2.6059468,3.2623959,0.56749886,0.01699463,6.22046,43.92357,-542.5491,337.17136,50,given_smb,false,routing,routing,th,pism_g450m_frontretreat_calfin_1972_2019.nc,pseudo_plastic
43,593557.8831457538,seasonal_calving_id_7_1975_2025.nc,7.858835255728956e-05,MAR3.9_CNRM-CM6_ssp585_ocean_1960-2100_v4.nc,DMI-HIRHAM5_ERA_1975_2021_EPSG3413_4500M_MM.nc,0.000273755785599811,1.082462186891973,0.39121492957371257,1.7683727905200035,2.3048408,3.2775156,0.69655424,0.012895706,5.6203604,44.907124,-427.58264,184.7108,50,given_smb,false,routing,routing,th,pism_g450m_frontretreat_calfin_1972_2019.nc,pseudo_plastic
44,366940.9187082863,seasonal_calving_id_4_1975_2025.nc,9.342456386503215e-05,MAR3.9_IPSL-CM5-MR_rcp85_ocean_1960-2100_v4.nc,MARv3.14-monthly-ERA5-1975_2023.nc,0.00024508849526410807,1.3933797013737905,0.41341335882601354,2.0154007994712013,2.3912373,3.2875175,0.7539567,0.015147885,9.596169,42.285473,-322.2563,225.06485,50,given_smb,false,routing,routing,th,pism_g450m_frontretreat_calfin_1972_2019.nc,pseudo_plastic
45,609909.0885383936,seasonal_calving_id_5_1975_2025.nc,0.0001334786589295938,MAR3.9_IPSL-CM5-MR_rcp85_ocean_1960-2100_v4.nc,DMI-HIRHAM5_ERA_1975_2021_EPSG3413_4500M_MM.nc,0.0002698844459269033,1.229046041294515,0.6771699942192051,1.8541227434878333,2.6533175,3.2138934,0.70627844,0.024131667,5.2323403,41.834873,-374.79645,328.02716,50,given_smb,false,routing,routing,th,pism_g450m_frontretreat_calfin_1972_2019.nc,pseudo_plastic
46,619232.4222775502,seasonal_calving_id_7_1975_2025.nc,0.00010940666081606904,MAR3.9_CSIRO-Mk3.6_rcp85_ocean_1960-2100_v4.nc,DMI-HIRHAM5_ERA_1975_2021_EPSG3413_4500M_MM.nc,0.0003549654534283344,1.0756246329705494,0.6408387763030825,2.797441026507519,2.8209805,3.334834,0.8251447,0.024392858,6.5287967,43.41842,-266.46896,193.58937,50,given_smb,false,routing,routing,th,pism_g450m_frontretreat_calfin_1972_2019.nc,pseudo_plastic
47,479233.8656810403,seasonal_calving_id_3_1975_2025.nc,8.515871266266492e-05,MAR3.9_HadGEM2-ES_rcp85_ocean_1960-2100_v4.nc,MARv3.14-monthly-ERA5-1975_2023.nc,0.000298862709842528,1.56412491497497,0.36035234018698736,2.4490358412471647,2.408309,3.2893121,0.74340206,0.017906835,12.453988,40.89756,-133.4746,104.61608,50,given_smb,false,routing,routing,th,pism_g450m_frontretreat_calfin_1972_2019.nc,pseudo_plastic
48,401406.4768597728,seasonal_calving_id_1_1975_2025.nc,0.0001212212932898334,MAR3.9_HadGEM2-ES_rcp85_ocean_1960-2100_v4.nc,DMI-HIRHAM5_ERA_1975_2021_EPSG3413_4500M_MM.nc,0.0003333434496537942,1.2927790505663315,0.6727418004126968,2.4410480391677245,2.629514,3.3588986,0.8222337,0.017765516,9.321745,43.847782,-279.9635,232.6414,50,given_smb,false,routing,routing,th,pism_g450m_frontretreat_calfin_1972_2019.nc,pseudo_plastic
49,502296.9534105459,seasonal_calving_id_0_1975_2025.nc,0.00010488512813947476,MAR3.9_HadGEM2-ES_rcp85_ocean_1960-2100_v4.nc,MARv3.14-monthly-ERA5-1975_2023.nc,0.0003416544898114962,1.28545216110183,0.55909434524191,1.307638021413468,2.5597792,3.2861104,0.7747558,0.026828194,5.3441095,44.673084,-266.80045,565.17413,50,given_smb,false,routing,routing,th,pism_g450m_frontretreat_calfin_1972_2019.nc,pseudo_plastic
50,574560.9465102238,seasonal_calving_id_1_1975_2025.nc,7.953725381881252e-05,MAR3.9_CNRM-CM6_ssp126_ocean_1960-2100_v4.nc,MARv3.14-monthly-ERA5-1975_2023.nc,0.00028828129001710185,1.1698390720677478,0.5106119000231379,2.199116401824614,2.5766702,3.3061588,0.7843439,0.017921451,7.120949,43.382084,-289.35788,159.061,50,given_smb,false,routing,routing,th,pism_g450m_frontretreat_calfin_1972_2019.nc,pseudo_plastic
51,380276.32025489805,seasonal_calving_id_3_1975_2025.nc,0.00014911129812436103,MAR3.9_HadGEM2-ES_rcp85_ocean_1960-2100_v4.nc,MARv3.14-monthly-ERA5-1975_2023.nc,0.0002984951498963091,1.211607723181147,0.6711302498522387,1.4324873419474078,2.3291001,3.348605,0.8547104,0.02049196,7.521268,42.383766,-463.5813,597.1094,50,given_smb,false,routing,routing,th,pism_g450m_frontretreat_calfin_1972_2019.nc,pseudo_plastic
52,393970.94658882404,seasonal_calving_id_4_1975_2025.nc,0.00011663683380360893,MAR3.9_MIROC-ESM-CHEM_rcp85_ocean_1960-2100_v4.nc,MARv3.14-monthly-ERA5-1975_2023.nc,0.00035830947531460887,1.0251070144535623,0.3103828378104275,1.9952228841487134,2.3180857,3.2307081,0.7960599,0.018321177,6.9635415,43.534306,-246.04974,260.05103,50,given_smb,false,routing,routing,th,pism_g450m_frontretreat_calfin_1972_2019.nc,pseudo_plastic
53,544635.3738987851,seasonal_calving_id_0_1975_2025.nc,0.00012280393331039617,MAR3.9_NorESM1-M_rcp85_ocean_1960-2100_v4.nc,DMI-HIRHAM5_ERA_1975_2021_EPSG3413_4500M_MM.nc,0.000291259315963603,1.2036319891336422,0.3661529894148445,1.5324536060255372,2.6407335,3.3280714,0.66186345,0.019016001,11.638626,41.42807,-292.4122,281.20367,50,given_smb,false,routing,routing,th,pism_g450m_frontretreat_calfin_1972_2019.nc,pseudo_plastic
54,635380.9909958944,seasonal_calving_id_2_1975_2025.nc,0.00010419794686781158,MAR3.9_ACCESS1-3_rcp85_ocean_1960-2100_v4.nc,MARv3.14-monthly-ERA5-1975_2023.nc,0.0003236474045482057,1.57473276183515,0.540212442541077,1.1356684183174182,2.807984,3.2621174,0.74372613,0.023302197,7.045954,43.86743,-238.45143,323.67532,50,given_smb,false,routing,routing,th,pism_g450m_frontretreat_calfin_1972_2019.nc,pseudo_plastic
55,646503.9439588832,seasonal_calving_id_2_1975_2025.nc,9.737761947553855e-05,MAR3.9_HadGEM2-ES_rcp85_ocean_1960-2100_v4.nc,DMI-HIRHAM5_ERA_1975_2021_EPSG3413_4500M_MM.nc,0.0003274018379248979,1.5282335126870288,0.32638024318278197,1.6649177936384851,2.054232,3.298135,0.8489163,0.015829753,5.3263965,40.462425,-340.72437,124.63664,50,given_smb,false,routing,routing,th,pism_g450m_frontretreat_calfin_1972_2019.nc,pseudo_plastic
56,640999.6625112165,seasonal_calving_id_3_1975_2025.nc,0.00012630522313567395,MAR3.9_ACCESS1-3_rcp85_ocean_1960-2100_v4.nc,DMI-HIRHAM5_ERA_1975_2021_EPSG3413_4500M_MM.nc,0.0002847387295355985,1.3906551653950583,0.6399891306141812,1.812649802828541,2.2027519,3.2789872,0.76007247,0.014931061,8.405621,43.45912,-406.31036,356.9981,50,given_smb,false,routing,routing,th,pism_g450m_frontretreat_calfin_1972_2019.nc,pseudo_plastic
57,537677.1571605024,seasonal_calving_id_6_1975_2025.nc,0.00012031213626957578,MAR3.9_MIROC-ESM-CHEM_rcp85_ocean_1960-2100_v4.nc,DMI-HIRHAM5_ERA_1975_2021_EPSG3413_4500M_MM.nc,0.00028941873303204934,1.3342889987581448,0.4358632139626548,2.25512812079924,1.7983071,3.3368795,0.82875764,0.014433815,6.48304,44.07699,-305.6317,93.41464,50,given_smb,false,routing,routing,th,pism_g450m_frontretreat_calfin_1972_2019.nc,pseudo_plastic
58,417778.5691281489,seasonal_calving_id_5_1975_2025.nc,0.00011893140973632274,MAR3.9_MIROC-ESM-CHEM_rcp85_ocean_1960-2100_v4.nc,MARv3.14-monthly-ERA5-1975_2023.nc,0.00027532830607547175,1.4177176751926406,0.6552165451414793,2.4736341348023316,2.4306307,3.3291886,0.7141122,0.0148036005,6.261103,43.32183,-409.32495,214.68896,50,given_smb,false,routing,routing,th,pism_g450m_frontretreat_calfin_1972_2019.nc,pseudo_plastic
59,562879.2554004828,seasonal_calving_id_0_1975_2025.nc,0.0001425573049463115,MAR3.9_UKESM1-CM6_ssp585_ocean_1960-2100_v4.nc,MARv3.14-monthly-ERA5-1975_2023.nc,0.00024017547162947755,1.547906336886765,0.32248238894347697,1.7089026609165971,2.7901423,3.299416,0.78482705,0.016387582,5.5193114,41.645676,-453.4439,162.62973,50,given_smb,false,routing,routing,th,pism_g450m_frontretreat_calfin_1972_2019.nc,pseudo_plastic
60,513778.81112183793,seasonal_calving_id_4_1975_2025.nc,0.00012458829872529032,MAR3.9_IPSL-CM5-MR_rcp85_ocean_1960-2100_v4.nc,DMI-HIRHAM5_ERA_1975_2021_EPSG3413_4500M_MM.nc,0.0003425712958771689,1.1091043810563406,0.46061693104271784,1.188899253826539,3.155876,3.291811,0.82374525,0.015406826,8.170179,43.677856,-354.8352,161.05238,50,given_smb,false,routing,routing,th,pism_g450m_frontretreat_calfin_1972_2019.nc,pseudo_plastic
61,523806.4225607242,seasonal_calving_id_7_1975_2025.nc,0.00010702411537869314,MAR3.9_HadGEM2-ES_rcp85_ocean_1960-2100_v4.nc,DMI-HIRHAM5_ERA_1975_2021_EPSG3413_4500M_MM.nc,0.0003048476290113708,1.4495512468381733,0.4277110259450443,2.692443437377288,2.5881915,3.2957494,0.6774546,0.019382123,8.717578,43.409668,-334.80206,158.37418,50,given_smb,false,routing,routing,th,pism_g450m_frontretreat_calfin_1972_2019.nc,pseudo_plastic
62,642833.2709826303,seasonal_calving_id_5_1975_2025.nc,8.205280774219439e-05,MAR3.9_HadGEM2-ES_rcp85_ocean_1960-2100_v4.nc,DMI-HIRHAM5_ERA_1975_2021_EPSG3413_4500M_MM.nc,0.0003293729336449285,1.0854677299658009,0.3360309683714143,1.235336901386741,2.4291732,3.313643,0.7076109,0.017481193,6.467258,41.38231,-385.28818,210.31525,50,given_smb,false,routing,routing,th,pism_g450m_frontretreat_calfin_1972_2019.nc,pseudo_plastic
63,631589.5117062891,seasonal_calving_id_0_1975_2025.nc,7.786515633619105e-05,MAR3.9_NorESM1-M_rcp85_ocean_1960-2100_v4.nc,MARv3.14-monthly-ERA5-1975_2023.nc,0.000317896437310174,1.3223974806016117,0.4831340219883763,1.9659417994908943,2.6106184,3.2899697,0.8272537,0.017780807,9.569984,40.159637,-264.3209,244.24167,50,given_smb,false,routing,routing,th,pism_g450m_frontretreat_calfin_1972_2019.nc,pseudo_plastic
64,509611.3843516702,seasonal_calving_id_5_1975_2025.nc,0.00010980993162965831,MAR3.9_UKESM1-CM6_ssp585_ocean_1960-2100_v4.nc,DMI-HIRHAM5_ERA_1975_2021_EPSG3413_4500M_MM.nc,0.00034560361712477776,1.5982742131711571,0.4383309587901968,1.9233411118396908,3.063583,3.2629762,0.59944713,0.019083748,9.59543,43.34195,-364.53418,191.11821,50,given_smb,false,routing,routing,th,pism_g450m_frontretreat_calfin_1972_2019.nc,pseudo_plastic
65,397858.37166162516,seasonal_calving_id_0_1975_2025.nc,9.810842378069623e-05,MAR3.9_CNRM-ESM2_ssp585_ocean_1960-2100_v4.nc,DMI-HIRHAM5_ERA_1975_2021_EPSG3413_4500M_MM.nc,0.0003497330476511409,1.6345282997452553,0.30655907782240926,1.5507690505751994,2.5661979,3.3772686,0.84361315,0.015517538,5.3097467,44.096027,-681.9378,522.7436,50,given_smb,false,routing,routing,th,pism_g450m_frontretreat_calfin_1972_2019.nc,pseudo_plastic
66,439613.2597502149,seasonal_calving_id_1_1975_2025.nc,0.00010348138468054125,MAR3.9_CNRM-ESM2_ssp585_ocean_1960-2100_v4.nc,MARv3.14-monthly-ERA5-1975_2023.nc,0.0003339695573837873,1.0296927473124475,0.472096977487295,1.8403237198977487,2.634223,3.3799427,0.69234824,0.0149324145,7.7862654,42.122517,-487.79037,173.01381,50,given_smb,false,routing,routing,th,pism_g450m_frontretreat_calfin_1972_2019.nc,pseudo_plastic
67,487721.06744896906,seasonal_calving_id_3_1975_2025.nc,0.0001414047642051998,MAR3.9_MIROC-ESM-CHEM_rcp85_ocean_1960-2100_v4.nc,DMI-HIRHAM5_ERA_1975_2021_EPSG3413_4500M_MM.nc,0.00028756712829873196,1.0360966687343527,0.3966809714735464,2.563637502457989,2.716261,3.2984095,0.7033916,0.018393649,9.233434,40.29545,-414.30106,354.8951,50,given_smb,false,routing,routing,th,pism_g450m_frontretreat_calfin_1972_2019.nc,pseudo_plastic
68,399290.38884095446,seasonal_calving_id_6_1975_2025.nc,0.0001273398998844578,MAR3.9_ACCESS1-3_rcp85_ocean_1960-2100_v4.nc,DMI-HIRHAM5_ERA_1975_2021_EPSG3413_4500M_MM.nc,0.00026727312217033537,1.6130423317181384,0.3772538514780343,1.5796335937282546,3.1002867,3.4147096,0.810483,0.025673434,7.7639217,43.862667,-223.80023,279.14554,50,given_smb,false,routing,routing,th,pism_g450m_frontretreat_calfin_1972_2019.nc,pseudo_plastic
69,520880.689701172,seasonal_calving_id_7_1975_2025.nc,8.947318293337421e-05,MAR3.9_CSIRO-Mk3.6_rcp85_ocean_1960-2100_v4.nc,DMI-HIRHAM5_ERA_1975_2021_EPSG3413_4500M_MM.nc,0.0003137693572881903,1.1043979934641999,0.5542015718158861,1.2925766563751464,2.348978,3.3076868,0.6433975,0.018796813,11.698518,42.316162,-297.17007,212.95738,50,given_smb,false,routing,routing,th,pism_g450m_frontretreat_calfin_1972_2019.nc,pseudo_plastic
70,406655.0323901382,seasonal_calving_id_3_1975_2025.nc,8.854925419357896e-05,MAR3.9_MIROC-ESM-CHEM_rcp26_ocean_1960-2100_v4.nc,MARv3.14-monthly-ERA5-1975_2023.nc,0.0002535134721702726,1.0445689152630568,0.3153579988100575,1.9068492987978058,2.773781,3.2755463,0.760901,0.02511536,9.4128275,43.84492,-161.3208,233.00914,50,given_smb,false,routing,routing,th,pism_g450m_frontretreat_calfin_1972_2019.nc,pseudo_plastic
71,473262.15589026874,seasonal_calving_id_3_1975_2025.nc,8.658116950194405e-05,MAR3.9_ACCESS1-3_rcp85_ocean_1960-2100_v4.nc,MARv3.14-monthly-ERA5-1975_2023.nc,0.00031472171976147835,1.6217894503079138,0.630977646167932,2.274054496388567,2.666165,3.3008337,0.7504754,0.01866722,7.865578,41.851463,-281.25253,208.01273,50,given_smb,false,routing,routing,th,pism_g450m_frontretreat_calfin_1972_2019.nc,pseudo_plastic
72,422413.9813451418,seasonal_calving_id_5_1975_2025.nc,0.00014184388061805705,MAR3.9_ACCESS1-3_rcp85_ocean_1960-2100_v4.nc,MARv3.14-monthly-ERA5-1975_2023.nc,0.00028083434032829266,1.313329577758567,0.5617335037667113,1.9753702073171766,2.6674354,3.3293927,0.77604896,0.019364117,7.521473,42.32338,-376.24924,218.14886,50,given_smb,false,routing,routing,th,pism_g450m_frontretreat_calfin_1972_2019.nc,pseudo_plastic
73,496824.1607637223,seasonal_calving_id_7_1975_2025.nc,0.000144223683981475,MAR3.9_CSIRO-Mk3.6_rcp85_ocean_1960-2100_v4.nc,DMI-HIRHAM5_ERA_1975_2021_EPSG3413_4500M_MM.nc,0.0003470218320752878,1.5009251975532123,0.45863508069082226,1.2435159889070588,2.4181087,3.2681682,0.6920152,0.017842954,8.491145,42.583282,-305.02673,268.2838,50,given_smb,false,routing,routing,th,pism_g450m_frontretreat_calfin_1972_2019.nc,pseudo_plastic
74,557762.6374549952,seasonal_calving_id_1_1975_2025.nc,9.861646108534275e-05,MAR3.9_MIROC-ESM-CHEM_rcp26_ocean_1960-2100_v4.nc,DMI-HIRHAM5_ERA_1975_2021_EPSG3413_4500M_MM.nc,0.0002772727867729431,1.4011057912600446,0.3857151347840925,1.5246002768425422,2.2010202,3.317347,0.7709408,0.020265104,7.3642464,42.60191,-530.9026,623.3965,50,given_smb,false,routing,routing,th,pism_g450m_frontretreat_calfin_1972_2019.nc,pseudo_plastic
75,455901.847690603,seasonal_calving_id_1_1975_2025.nc,7.559652545547012e-05,MAR3.9_CSIRO-Mk3.6_rcp85_ocean_1960-2100_v4.nc,MARv3.14-monthly-ERA5-1975_2023.nc,0.00033043194152930337,1.12176811668499,0.5501703896909641,1.2842844290348605,1.822921,3.3394756,0.80426663,0.014151368,6.556768,44.039192,-504.4127,326.517,50,given_smb,false,routing,routing,th,pism_g450m_frontretreat_calfin_1972_2019.nc,pseudo_plastic
76,483237.6708305022,seasonal_calving_id_2_1975_2025.nc,0.00010253360609131637,MAR3.9_MIROC-ESM-CHEM_rcp85_ocean_1960-2100_v4.nc,MARv3.14-monthly-ERA5-1975_2023.nc,0.00030934130715928334,1.2434711157389553,0.4239705863505089,2.663247237466224,2.577779,3.3704023,0.8661826,0.019227471,6.118876,42.792812,-499.4556,251.61163,50,given_smb,false,routing,routing,th,pism_g450m_frontretreat_calfin_1972_2019.nc,pseudo_plastic
77,361499.69254180766,seasonal_calving_id_6_1975_2025.nc,8.789257396291152e-05,MAR3.9_HadGEM2-ES_rcp85_ocean_1960-2100_v4.nc,DMI-HIRHAM5_ERA_1975_2021_EPSG3413_4500M_MM.nc,0.0003359647311308271,1.5141068811469895,0.4929048333453915,1.4024151023520632,2.1622934,3.2749374,0.6531815,0.019333722,6.740815,40.831768,-407.8999,248.08438,50,given_smb,false,routing,routing,th,pism_g450m_frontretreat_calfin_1972_2019.nc,pseudo_plastic
78,614563.0458841438,seasonal_calving_id_7_1975_2025.nc,8.381407026809215e-05,MAR3.9_CSIRO-Mk3.6_rcp85_ocean_1960-2100_v4.nc,DMI-HIRHAM5_ERA_1975_2021_EPSG3413_4500M_MM.nc,0.00026622944126037783,1.1932258017699116,0.5381339909164153,1.4935134527879665,2.4398315,3.2211242,0.72965544,0.025510876,5.8225493,40.493637,-207.84236,377.45944,50,given_smb,false,routing,routing,th,pism_g450m_frontretreat_calfin_1972_2019.nc,pseudo_plastic
79,374585.7406244674,seasonal_calving_id_6_1975_2025.nc,0.00010579662710527972,MAR3.9_CNRM-ESM2_ssp585_ocean_1960-2100_v4.nc,MARv3.14-monthly-ERA5-1975_2023.nc,0.00024260726501868619,1.4760733290946395,0.6231792397518681,1.3391651377386056,3.146597,3.3631124,0.78973866,0.02188111,6.15408,44.395184,-292.2153,278.2203,50,given_smb,false,routing,routing,th,pism_g450m_frontretreat_calfin_1972_2019.nc,pseudo_plastic
80,353817.0153906773,seasonal_calving_id_2_1975_2025.nc,0.0001453806685484133,MAR3.9_UKESM1-CM6_ssp585_ocean_1960-2100_v4.nc,MARv3.14-monthly-ERA5-1975_2023.nc,0.00033703289275670506,1.3624831328903646,0.5850793776309453,2.7501588028270474,3.2056124,3.3078125,0.82354563,0.022271303,7.011785,42.379333,-227.64473,291.25922,50,given_smb,false,routing,routing,th,pism_g450m_frontretreat_calfin_1972_2019.nc,pseudo_plastic
81,350780.3556401137,seasonal_calving_id_5_1975_2025.nc,0.0001406440004124062,MAR3.9_NorESM1-M_rcp85_ocean_1960-2100_v4.nc,DMI-HIRHAM5_ERA_1975_2021_EPSG3413_4500M_MM.nc,0.0002485570463485518,1.2490776873166354,0.47949319874611906,1.3791984312491343,2.9238164,3.303048,0.76598334,0.019472614,8.460565,43.879623,-230.01205,216.22282,50,given_smb,false,routing,routing,th,pism_g450m_frontretreat_calfin_1972_2019.nc,pseudo_plastic
82,488635.457537133,seasonal_calving_id_5_1975_2025.nc,8.407699363164414e-05,MAR3.9_CNRM-CM6_ssp585_ocean_1960-2100_v4.nc,DMI-HIRHAM5_ERA_1975_2021_EPSG3413_4500M_MM.nc,0.0002597126182479896,1.233036863619967,0.40881313567758787,2.220811060774097,2.8763378,3.293496,0.89960045,0.024647469,5.497501,40.74574,-231.68378,191.09583,50,given_smb,false,routing,routing,th,pism_g450m_frontretreat_calfin_1972_2019.nc,pseudo_plastic
83,554725.2081674285,seasonal_calving_id_5_1975_2025.nc,0.00013388341663690153,MAR3.9_ACCESS1-3_rcp85_ocean_1960-2100_v4.nc,MARv3.14-monthly-ERA5-1975_2023.nc,0.0003122546123581152,1.014783744366314,0.6449342095463452,1.4551326802635862,2.7421627,3.302555,0.71401757,0.020660987,11.855409,41.24639,-244.09021,261.5237,50,given_smb,false,routing,routing,th,pism_g450m_frontretreat_calfin_1972_2019.nc,pseudo_plastic
84,546044.3248587045,seasonal_calving_id_2_1975_2025.nc,0.0001386578209990032,MAR3.9_CNRM-CM6_ssp585_ocean_1960-2100_v4.nc,DMI-HIRHAM5_ERA_1975_2021_EPSG3413_4500M_MM.nc,0.00027242719838333255,1.606800358871891,0.30298690080604074,2.7435145712006297,2.927611,3.3450441,0.71783084,0.020612499,11.051558,41.441067,-166.46452,152.53061,50,given_smb,false,routing,routing,th,pism_g450m_frontretreat_calfin_1972_2019.nc,pseudo_plastic
85,551915.2097053742,seasonal_calving_id_1_1975_2025.nc,9.380364121480393e-05,MAR3.9_NorESM1-M_rcp85_ocean_1960-2100_v4.nc,DMI-HIRHAM5_ERA_1975_2021_EPSG3413_4500M_MM.nc,0.00032098399373653083,1.6469524019935413,0.46976526007271,2.4869724265977853,2.3399866,3.376378,0.8543537,0.019719977,6.613294,40.608498,-355.89413,209.90921,50,given_smb,false,routing,routing,th,pism_g450m_frontretreat_calfin_1972_2019.nc,pseudo_plastic
86,582516.6363724621,seasonal_calving_id_0_1975_2025.nc,0.00014609633046651469,MAR3.9_CNRM-ESM2_ssp585_ocean_1960-2100_v4.nc,MARv3.14-monthly-ERA5-1975_2023.nc,0.0002506580708011225,1.4658274223750165,0.5706114387469666,1.170895231596798,2.562271,3.3226812,0.793327,0.015086117,9.850249,42.409008,-339.95746,129.6941,50,given_smb,false,routing,routing,th,pism_g450m_frontretreat_calfin_1972_2019.nc,pseudo_plastic
87,477756.1958245656,seasonal_calving_id_1_1975_2025.nc,0.00013708656904331366,MAR3.9_ACCESS1-3_rcp85_ocean_1960-2100_v4.nc,DMI-HIRHAM5_ERA_1975_2021_EPSG3413_4500M_MM.nc,0.0003104188427006171,1.2970410147442535,0.4978717135419012,1.5961624748834264,2.6621783,3.3763535,0.86265266,0.019735876,6.841225,43.11664,-321.0341,388.14282,50,given_smb,false,routing,routing,th,pism_g450m_frontretreat_calfin_1972_2019.nc,pseudo_plastic
88,454479.0054489038,seasonal_calving_id_2_1975_2025.nc,0.00012558046484673516,MAR3.9_NorESM1-M_rcp85_ocean_1960-2100_v4.nc,MARv3.14-monthly-ERA5-1975_2023.nc,0.00035639302770757255,1.306339505401542,0.4552862418799071,1.1617069067996737,2.166316,3.3405366,0.7816525,0.015261999,8.672092,40.560833,-437.383,186.019,50,given_smb,false,routing,routing,th,pism_g450m_frontretreat_calfin_1972_2019.nc,pseudo_plastic
89,386050.57597629423,seasonal_calving_id_1_1975_2025.nc,0.00011416614091452666,MAR3.9_HadGEM2-ES_rcp85_ocean_1960-2100_v4.nc,MARv3.14-monthly-ERA5-1975_2023.nc,0.00035070313086729536,1.2589931834635157,0.5286167811536279,2.3824067909038655,2.9247417,3.1985881,0.779962,0.02625685,6.473339,42.521324,-246.45874,527.00586,50,given_smb,false,routing,routing,th,pism_g450m_frontretreat_calfin_1972_2019.nc,pseudo_plastic
90,533671.0693495446,seasonal_calving_id_3_1975_2025.nc,0.00010518448274978158,MAR3.9_CNRM-CM6_ssp585_ocean_1960-2100_v4.nc,MARv3.14-monthly-ERA5-1975_2023.nc,0.00026834970071310156,1.6788258523333743,0.3484123027794095,2.3196539583210343,1.867134,3.2911768,0.6284711,0.020706268,9.164246,40.834633,-398.8729,508.86688,50,given_smb,false,routing,routing,th,pism_g450m_frontretreat_calfin_1972_2019.nc,pseudo_plastic
91,444039.0455112092,seasonal_calving_id_1_1975_2025.nc,0.0001303954932388288,MAR3.9_NorESM1-M_rcp85_ocean_1960-2100_v4.nc,DMI-HIRHAM5_ERA_1975_2021_EPSG3413_4500M_MM.nc,0.00027083437530412097,1.471660264001644,0.5721435449315475,2.6288932433554804,2.3978376,3.2961164,0.6889314,0.018569632,5.84911,41.58839,-404.0826,222.57297,50,given_smb,false,routing,routing,th,pism_g450m_frontretreat_calfin_1972_2019.nc,pseudo_plastic
92,603024.4537598506,seasonal_calving_id_2_1975_2025.nc,0.00011072468884535652,MAR3.9_CNRM-ESM2_ssp585_ocean_1960-2100_v4.nc,MARv3.14-monthly-ERA5-1975_2023.nc,0.0003062502479643506,1.219251383279503,0.5445521444327005,2.717383349967779,2.4957142,3.3360162,0.871907,0.014120051,8.345273,41.889008,-549.728,156.04239,50,given_smb,false,routing,routing,th,pism_g450m_frontretreat_calfin_1972_2019.nc,pseudo_plastic
93,605156.4565093723,seasonal_calving_id_6_1975_2025.nc,9.956996562929073e-05,MAR3.9_CNRM-ESM2_ssp585_ocean_1960-2100_v4.nc,DMI-HIRHAM5_ERA_1975_2021_EPSG3413_4500M_MM.nc,0.00030157953441512604,1.696712534939171,0.6047124371106822,2.34687013202507,2.7390323,3.3691654,0.7904203,0.018423803,6.11014,41.80236,-463.53232,236.19504,50,given_smb,false,routing,routing,th,pism_g450m_frontretreat_calfin_1972_2019.nc,pseudo_plastic
94,566796.5925397292,seasonal_calving_id_2_1975_2025.nc,0.00014704030848528037,MAR3.9_MIROC-ESM-CHEM_rcp26_ocean_1960-2100_v4.nc,DMI-HIRHAM5_ERA_1975_2021_EPSG3413_4500M_MM.nc,0.00032520297622322804,1.2640245286341532,0.5813379149055885,2.225071405855382,2.8816957,3.349437,0.75274324,0.018551353,7.6458383,44.4126,-592.9851,548.98236,50,given_smb,false,routing,routing,th,pism_g450m_frontretreat_calfin_1972_2019.nc,pseudo_plastic
95,471617.3520400482,seasonal_calving_id_4_1975_2025.nc,0.00013535176511817853,MAR3.9_CNRM-CM6_ssp126_ocean_1960-2100_v4.nc,MARv3.14-monthly-ERA5-1975_2023.nc,0.0002646602899785174,1.3441396589974057,0.3815700368867476,2.593548438569587,2.6635547,3.3037689,0.76274806,0.01895361,5.3142095,43.585766,-448.49347,296.70615,50,given_smb,false,routing,routing,th,pism_g450m_frontretreat_calfin_1972_2019.nc,pseudo_plastic
96,407186.5572061913,seasonal_calving_id_7_1975_2025.nc,0.00011790319521679546,MAR3.9_CNRM-CM6_ssp126_ocean_1960-2100_v4.nc,MARv3.14-monthly-ERA5-1975_2023.nc,0.00030796023016911144,1.6698470657954942,0.3172484262993777,2.0350959152865307,2.8182259,3.2818487,0.8708937,0.016735066,8.816611,41.73694,-290.16638,346.1903,50,given_smb,false,routing,routing,th,pism_g450m_frontretreat_calfin_1972_2019.nc,pseudo_plastic
97,446580.35276262625,seasonal_calving_id_0_1975_2025.nc,0.00011927608117401665,MAR3.9_ACCESS1-3_rcp85_ocean_1960-2100_v4.nc,MARv3.14-monthly-ERA5-1975_2023.nc,0.00029289338402772186,1.1965958962057786,0.37258512965665797,1.6238527516287422,2.8646665,3.2908208,0.7081648,0.021488057,6.4101305,42.420784,-231.30301,231.35995,50,given_smb,false,routing,routing,th,pism_g450m_frontretreat_calfin_1972_2019.nc,pseudo_plastic
98,504539.9454487056,seasonal_calving_id_4_1975_2025.nc,9.640367957331158e-05,MAR3.9_MIROC-ESM-CHEM_rcp26_ocean_1960-2100_v4.nc,MARv3.14-monthly-ERA5-1975_2023.nc,0.00025230060106903326,1.3366154213427628,0.39414127126948395,1.3221917383759725,2.8267107,3.3076937,0.85515046,0.020285448,5.947642,40.704758,-417.44952,219.19814,50,given_smb,false,routing,routing,th,pism_g450m_frontretreat_calfin_1972_2019.nc,pseudo_plastic
99,420572.7503860501,seasonal_calving_id_6_1975_2025.nc,0.0001317935147068567,MAR3.9_MIROC-ESM-CHEM_rcp26_ocean_1960-2100_v4.nc,MARv3.14-monthly-ERA5-1975_2023.nc,0.0002415801895722557,1.641637443343272,0.6186511829846222,1.2569564411025025,3.1672494,3.3132877,0.70803976,0.019736627,10.417835,44.472973,-241.90964,181.74167,50,given_smb,false,routing,routing,th,pism_g450m_frontretreat_calfin_1972_2019.nc,pseudo_plastic
