id,calving.vonmises_calving.sigma_max,calving.rate_scaling.file,ocean.th.gamma_T,ocean_file,climate_file,frontal_melt.routing.parameter_a,frontal_melt.routing.parameter_b,frontal_melt.routing.power_alpha,frontal_melt.routing.power_beta,sia_e,ssa_n,pseudo_plastic_q,till_effective_fraction_overburden,phi_min,phi_max,z_min,z_max,Model
0,356403.0426921494,seasonal_calving_id_3_1975_2025.nc,0.00011199475662405564,MAR3.9_UKESM1-CM6_ssp585_ocean_1960-2100_v4.nc,MARv3.14-monthly-ERA5-1975_2023.nc,0.00033796588274685323,1.6871770990265609,0.4017486371956591,2.5981785784027553,2.596625,3.2336102,0.79445887,0.017150652,5.5961347,42.671906,-285.50204,99.226715,18.0
1,606981.8354500432,seasonal_calving_id_3_1975_2025.nc,0.00011693599968657953,MAR3.9_CSIRO-Mk3.6_rcp85_ocean_1960-2100_v4.nc,DMI-HIRHAM5_ERA_1975_2021_EPSG3413_4500M_MM.nc,0.00030527662471874033,1.0048994828239473,0.4104372193540045,2.356913029243877,2.6394997,3.3106434,0.7365489,0.019481972,8.3356695,44.031815,-255.64606,169.80095,3.0
2,550658.3591805517,seasonal_calving_id_3_1975_2025.nc,0.00014488727818983915,MAR3.9_HadGEM2-ES_rcp85_ocean_1960-2100_v4.nc,DMI-HIRHAM5_ERA_1975_2021_EPSG3413_4500M_MM.nc,0.00024354773561053293,1.2621370402798482,0.6225941908255668,1.3243671663334615,2.546775,3.383049,0.74007225,0.019057734,8.563037,43.877975,-454.7231,669.1769,13.0
3,405430.7091657319,seasonal_calving_id_4_1975_2025.nc,0.00011818752209327463,MAR3.9_CNRM-CM6_ssp585_ocean_1960-2100_v4.nc,MARv3.14-monthly-ERA5-1975_2023.nc,0.00031078924575069346,1.1634773427570613,0.38317977016506327,1.5123311481117283,2.2501318,3.2363298,0.8162543,0.015460437,6.332159,43.265606,-339.94287,122.595566,49.0
4,381879.3234429775,seasonal_calving_id_0_1975_2025.nc,0.00012526764917221013,MAR3.9_UKESM1-CM6_ssp585_ocean_1960-2100_v4.nc,DMI-HIRHAM5_ERA_1975_2021_EPSG3413_4500M_MM.nc,0.0003078635163787874,1.3126230981651752,0.6410971913650569,1.1296614439400732,2.6445775,3.3370695,0.7453695,0.020280637,8.841818,44.11746,-354.46576,620.91693,1.0
5,535454.3529932923,seasonal_calving_id_6_1975_2025.nc,8.874458506212779e-05,MAR3.9_HadGEM2-ES_rcp85_ocean_1960-2100_v4.nc,MARv3.14-monthly-ERA5-1975_2023.nc,0.0003071933025694517,1.069286692890296,0.6112518249332177,1.1340640593237672,2.568299,3.3320632,0.8209821,0.015759109,7.724102,43.33301,-378.69168,291.0451,2.0
6,611929.4067818751,seasonal_calving_id_1_1975_2025.nc,0.00013212696634605544,MAR3.9_CNRM-CM6_ssp585_ocean_1960-2100_v4.nc,DMI-HIRHAM5_ERA_1975_2021_EPSG3413_4500M_MM.nc,0.00025440305013200765,1.481715280095012,0.31295234206422534,1.8364746707727795,3.2853684,3.3342428,0.58674055,0.022102775,6.62041,42.751675,-582.6202,416.6764,42.0
7,558209.4434629807,seasonal_calving_id_6_1975_2025.nc,0.00014589906298082935,MAR3.9_CNRM-CM6_ssp126_ocean_1960-2100_v4.nc,MARv3.14-monthly-ERA5-1975_2023.nc,0.0003255994935363333,1.2116520572187437,0.6472212036412661,1.2225922054739549,3.1391802,3.277512,0.57635844,0.023519749,6.6808205,43.62332,-400.3284,357.1123,28.0
8,642625.9690347214,seasonal_calving_id_2_1975_2025.nc,8.353810813669991e-05,MAR3.9_CNRM-CM6_ssp585_ocean_1960-2100_v4.nc,DMI-HIRHAM5_ERA_1975_2021_EPSG3413_4500M_MM.nc,0.00031376446740710663,1.4276764353803002,0.5513199196393269,2.0077808803148107,2.9540446,3.3426552,0.72153276,0.02187005,12.399337,42.065937,-183.95314,525.3607,28.0
9,508283.57051687303,seasonal_calving_id_3_1975_2025.nc,0.00014143085362781482,MAR3.9_CSIRO-Mk3.6_rcp85_ocean_1960-2100_v4.nc,MARv3.14-monthly-ERA5-1975_2023.nc,0.00032346756876983486,1.500656799941765,0.32980134805794,2.444344184336352,2.641836,3.335232,0.75848615,0.024382846,7.6836495,42.799168,-266.99707,220.63953,30.0
10,467167.1304748989,seasonal_calving_id_2_1975_2025.nc,0.00012149432601410787,MAR3.9_ACCESS1-3_rcp85_ocean_1960-2100_v4.nc,DMI-HIRHAM5_ERA_1975_2021_EPSG3413_4500M_MM.nc,0.0003436677393609364,1.6355702700179053,0.3001721123893171,1.9410693733782722,2.256866,3.2336292,0.69483745,0.015946807,6.28664,42.039124,-490.98654,315.81503,34.0
11,590241.9548221477,seasonal_calving_id_1_1975_2025.nc,8.431219448018109e-05,MAR3.9_CSIRO-Mk3.6_rcp85_ocean_1960-2100_v4.nc,MARv3.14-monthly-ERA5-1975_2023.nc,0.000266394245361258,1.3404354386765596,0.4305703174556938,2.1198382845628005,3.0595903,3.2911792,0.5720373,0.020387204,5.6842003,41.511593,-512.6034,294.9538,18.0
12,527041.559802378,seasonal_calving_id_0_1975_2025.nc,0.00013799493584725874,MAR3.9_IPSL-CM5-MR_rcp85_ocean_1960-2100_v4.nc,DMI-HIRHAM5_ERA_1975_2021_EPSG3413_4500M_MM.nc,0.00027598162416481755,1.4858980177982144,0.33248900176581725,1.856125218242988,2.100058,3.2931333,0.6246911,0.01659491,5.8740587,40.5594,-456.46497,230.09654,37.0
13,414317.277089244,seasonal_calving_id_5_1975_2025.nc,8.977110670534002e-05,MAR3.9_MIROC-ESM-CHEM_rcp26_ocean_1960-2100_v4.nc,DMI-HIRHAM5_ERA_1975_2021_EPSG3413_4500M_MM.nc,0.00029416522176155203,1.571321344272178,0.43690890897055046,1.2364097397166383,1.9067659,3.2439406,0.72631526,0.014359996,10.082237,44.24856,-233.73827,202.45451,45.0
14,515803.20353688695,seasonal_calving_id_0_1975_2025.nc,9.278113767793876e-05,MAR3.9_CSIRO-Mk3.6_rcp85_ocean_1960-2100_v4.nc,MARv3.14-monthly-ERA5-1975_2023.nc,0.00026913575402875875,1.5595769362833318,0.5312410937053724,1.6079989159391381,2.4536746,3.3022285,0.76424557,0.022578385,7.847516,41.393875,-207.08179,282.1517,44.0
15,433511.1233655158,seasonal_calving_id_2_1975_2025.nc,9.483362102781571e-05,MAR3.9_MIROC-ESM-CHEM_rcp26_ocean_1960-2100_v4.nc,DMI-HIRHAM5_ERA_1975_2021_EPSG3413_4500M_MM.nc,0.00034921135647870066,1.6802480119739789,0.5330945142256471,2.409501471889725,2.4050343,3.2420385,0.8271909,0.026192337,5.455577,41.058495,-290.86057,670.6826,27.0
16,436207.5502827758,seasonal_calving_id_4_1975_2025.nc,0.00011418347896689603,MAR3.9_ACCESS1-3_rcp85_ocean_1960-2100_v4.nc,DMI-HIRHAM5_ERA_1975_2021_EPSG3413_4500M_MM.nc,0.00025798201947361974,1.189492640023794,0.5739749283263167,1.3509449566281462,2.6166122,3.2121458,0.7101861,0.01832929,6.9737463,43.730537,-368.5047,273.14957,18.0
17,608859.2792379139,seasonal_calving_id_6_1975_2025.nc,0.0001176650495551659,MAR3.9_MIROC-ESM-CHEM_rcp26_ocean_1960-2100_v4.nc,MARv3.14-monthly-ERA5-1975_2023.nc,0.00026837275171396805,1.6413502643194466,0.39948113022274,2.7079986966674383,2.6296978,3.3113554,0.6755802,0.016293952,8.760522,40.782578,-494.46277,317.72995,22.0
18,579729.8680963223,seasonal_calving_id_1_1975_2025.nc,9.590835625461743e-05,MAR3.9_NorESM1-M_rcp85_ocean_1960-2100_v4.nc,DMI-HIRHAM5_ERA_1975_2021_EPSG3413_4500M_MM.nc,0.00030182637902152396,1.243396816833095,0.567990523032627,1.7546262394909693,2.8720257,3.299802,0.74751854,0.018450601,7.6270814,40.79948,-348.24377,149.62785,42.0
19,520455.89318682556,seasonal_calving_id_1_1975_2025.nc,0.00010450396239226984,MAR3.9_CSIRO-Mk3.6_rcp85_ocean_1960-2100_v4.nc,DMI-HIRHAM5_ERA_1975_2021_EPSG3413_4500M_MM.nc,0.000357454347308781,1.6249721454650743,0.48796092587575646,2.6223086153785857,2.6799707,3.2689235,0.69273955,0.020569094,6.1370544,42.251225,-354.66315,249.78412,1.0
20,585315.346976211,seasonal_calving_id_3_1975_2025.nc,0.00013549034224532826,MAR3.9_CNRM-CM6_ssp585_ocean_1960-2100_v4.nc,MARv3.14-monthly-ERA5-1975_2023.nc,0.0002726851646442828,1.1486899086939721,0.3195351898010857,2.761993013336838,2.168773,3.3060637,0.6261914,0.016776962,9.292463,42.40276,-376.04303,296.14288,37.0
21,565346.9726302468,seasonal_calving_id_4_1975_2025.nc,0.00013305207995026842,MAR3.9_HadGEM2-ES_rcp85_ocean_1960-2100_v4.nc,DMI-HIRHAM5_ERA_1975_2021_EPSG3413_4500M_MM.nc,0.00025186083958389364,1.2516473463947704,0.5815546412353392,2.7380211628430264,2.75217,3.2944665,0.7722625,0.020353377,6.2500587,44.272766,-386.63678,478.09766,45.0
22,561508.8005443695,seasonal_calving_id_6_1975_2025.nc,8.016529686270029e-05,MAR3.9_CNRM-CM6_ssp585_ocean_1960-2100_v4.nc,DMI-HIRHAM5_ERA_1975_2021_EPSG3413_4500M_MM.nc,0.00031310473227193534,1.5111897106698242,0.6301695538324215,1.4201121078423422,2.2087862,3.3314362,0.87310594,0.014859207,6.605898,44.44809,-399.8772,139.90977,0.0
23,455140.48648535577,seasonal_calving_id_6_1975_2025.nc,0.00014783733625530778,MAR3.9_CNRM-ESM2_ssp585_ocean_1960-2100_v4.nc,DMI-HIRHAM5_ERA_1975_2021_EPSG3413_4500M_MM.nc,0.0003527254790394256,1.29439643632645,0.571258539057153,1.574746562395412,2.9660518,3.2487485,0.8283004,0.021817148,9.113729,44.7681,-279.46542,220.50084,24.0
24,649438.2076907377,seasonal_calving_id_5_1975_2025.nc,0.00010155246236092467,MAR3.9_IPSL-CM5-MR_rcp85_ocean_1960-2100_v4.nc,DMI-HIRHAM5_ERA_1975_2021_EPSG3413_4500M_MM.nc,0.0003179881128159102,1.0099683967220987,0.42550720736882697,1.7741343403757375,2.1153178,3.3404443,0.79277354,0.015235027,6.75737,44.04193,-407.973,251.09763,5.0
25,422412.7740879272,seasonal_calving_id_6_1975_2025.nc,0.00011544666821605996,MAR3.9_NorESM1-M_rcp85_ocean_1960-2100_v4.nc,MARv3.14-monthly-ERA5-1975_2023.nc,0.00024740713185528824,1.491416055591319,0.6677671467841678,1.6995870118679548,2.93001,3.3241754,0.62767774,0.022029078,5.6005363,41.80432,-468.95334,492.9009,44.0
26,370641.6898675109,seasonal_calving_id_2_1975_2025.nc,7.698206250378663e-05,MAR3.9_HadGEM2-ES_rcp85_ocean_1960-2100_v4.nc,DMI-HIRHAM5_ERA_1975_2021_EPSG3413_4500M_MM.nc,0.0003562181337429953,1.5245223199956315,0.6592956777565222,1.8147416174374564,2.7660875,3.2694793,0.59803104,0.016422627,8.285446,41.775604,-362.96307,184.10132,11.0
27,510594.4730666077,seasonal_calving_id_0_1975_2025.nc,8.83356534559965e-05,MAR3.9_MIROC-ESM-CHEM_rcp85_ocean_1960-2100_v4.nc,DMI-HIRHAM5_ERA_1975_2021_EPSG3413_4500M_MM.nc,0.00033070291500674495,1.393471714295318,0.36645977137957964,1.9947552231729626,2.041711,3.321562,0.83567953,0.019488748,6.332402,42.045044,-362.52206,299.75867,2.0
28,388053.71218240634,seasonal_calving_id_0_1975_2025.nc,7.576079200633476e-05,MAR3.9_ACCESS1-3_rcp85_ocean_1960-2100_v4.nc,MARv3.14-monthly-ERA5-1975_2023.nc,0.00031184667667452756,1.08305277013967,0.344002098271825,2.380519158824675,2.618573,3.3992746,0.8302547,0.01753398,7.787835,44.185043,-397.13754,257.08005,0.0
29,453408.55177904794,seasonal_calving_id_0_1975_2025.nc,0.00012193244687618822,MAR3.9_CNRM-ESM2_ssp585_ocean_1960-2100_v4.nc,MARv3.14-monthly-ERA5-1975_2023.nc,0.00031908710842242134,1.4662650678390727,0.6372772870190997,1.2073079693478683,2.67227,3.2688446,0.50825524,0.016213635,5.4124494,44.43839,-654.84906,249.73006,38.0
30,449728.30626023095,seasonal_calving_id_5_1975_2025.nc,9.601350049288922e-05,MAR3.9_CSIRO-Mk3.6_rcp85_ocean_1960-2100_v4.nc,DMI-HIRHAM5_ERA_1975_2021_EPSG3413_4500M_MM.nc,0.0002650478715490081,1.2570193337342763,0.4347375339457233,1.960543550132243,2.948601,3.3557725,0.77177334,0.023347694,6.7821774,41.802856,-292.45242,293.90155,44.0
31,473161.32880780596,seasonal_calving_id_6_1975_2025.nc,8.760469984371501e-05,MAR3.9_NorESM1-M_rcp85_ocean_1960-2100_v4.nc,MARv3.14-monthly-ERA5-1975_2023.nc,0.00032155213839939184,1.0169644995637528,0.6791998517464819,2.0529262470634584,2.8312263,3.335718,0.80989265,0.023449,7.48465,42.770813,-485.3172,493.34622,9.0
32,595092.3143470972,seasonal_calving_id_3_1975_2025.nc,9.118482364077525e-05,MAR3.9_IPSL-CM5-MR_rcp85_ocean_1960-2100_v4.nc,MARv3.14-monthly-ERA5-1975_2023.nc,0.0002666702267420063,1.283758217909039,0.34267200761374544,1.5778963116877498,2.1265612,3.3177123,0.6754651,0.016781718,10.003503,42.728203,-398.23465,399.09824,29.0
33,416336.4096295279,seasonal_calving_id_4_1975_2025.nc,0.0001386567317192726,MAR3.9_CNRM-CM6_ssp126_ocean_1960-2100_v4.nc,MARv3.14-monthly-ERA5-1975_2023.nc,0.0002523736797245328,1.2688737643454704,0.5570281189290797,1.2756169338647125,2.8592927,3.2491748,0.7974673,0.018145334,5.608305,44.22531,-273.97784,24.492632,45.0
34,619965.9466825493,seasonal_calving_id_4_1975_2025.nc,0.00013017358788613339,MAR3.9_CNRM-CM6_ssp126_ocean_1960-2100_v4.nc,DMI-HIRHAM5_ERA_1975_2021_EPSG3413_4500M_MM.nc,0.0002541288763938373,1.6639914120636292,0.5220120270651478,1.6838201892665468,2.8053715,3.332382,0.7669338,0.018169133,12.165739,44.370575,-300.38995,261.6245,5.0
35,503464.70236872765,seasonal_calving_id_1_1975_2025.nc,0.00010935960716031814,MAR3.9_MIROC-ESM-CHEM_rcp85_ocean_1960-2100_v4.nc,MARv3.14-monthly-ERA5-1975_2023.nc,0.00026198623469679056,1.2909539485126311,0.3524060079091748,2.1524706009999064,2.2980607,3.2926166,0.58832604,0.016583588,14.296378,41.820457,-179.39899,125.861946,40.0
36,574526.2880460531,seasonal_calving_id_0_1975_2025.nc,7.541302286429687e-05,MAR3.9_CNRM-ESM2_ssp585_ocean_1960-2100_v4.nc,MARv3.14-monthly-ERA5-1975_2023.nc,0.000342912305900186,1.4109458721854984,0.6046480908626535,1.265405637661875,2.2026148,3.359797,0.81659967,0.014808137,7.738298,43.757748,-387.16736,193.96729,23.0
37,620345.1401916922,seasonal_calving_id_3_1975_2025.nc,0.00012306315179888197,MAR3.9_MIROC-ESM-CHEM_rcp85_ocean_1960-2100_v4.nc,DMI-HIRHAM5_ERA_1975_2021_EPSG3413_4500M_MM.nc,0.00026293844152320547,1.2256412651663895,0.4974625467415772,1.983694315463092,2.1323895,3.3241448,0.7443038,0.016288389,6.4041133,41.430134,-308.22714,149.1553,33.0
38,448026.66494114907,seasonal_calving_id_2_1975_2025.nc,0.00010254401931641221,MAR3.9_ACCESS1-3_rcp85_ocean_1960-2100_v4.nc,DMI-HIRHAM5_ERA_1975_2021_EPSG3413_4500M_MM.nc,0.0003450617283564282,1.5932637947171655,0.5873695110236858,1.481748419368815,1.9554808,3.2747638,0.65586615,0.013187479,5.308059,42.368305,-506.68362,144.71138,19.0
39,571399.166346513,seasonal_calving_id_5_1975_2025.nc,0.0001421355894193744,MAR3.9_MIROC-ESM-CHEM_rcp85_ocean_1960-2100_v4.nc,DMI-HIRHAM5_ERA_1975_2021_EPSG3413_4500M_MM.nc,0.00024871186568808804,1.4535376113828529,0.45331992324363324,1.5319392345934053,3.2729974,3.2728534,0.6847258,0.021846669,7.315992,41.061558,-347.34442,278.71426,31.0
40,403866.7106007654,seasonal_calving_id_5_1975_2025.nc,0.00010722910838904629,MAR3.9_NorESM1-M_rcp85_ocean_1960-2100_v4.nc,DMI-HIRHAM5_ERA_1975_2021_EPSG3413_4500M_MM.nc,0.000338690392972178,1.0999919169054244,0.6127395338928331,1.4408955901939848,2.996381,3.2813327,0.7466265,0.020924048,5.947557,43.494343,-362.16452,295.5584,45.0
41,373462.9338117177,seasonal_calving_id_3_1975_2025.nc,0.00012723985738573334,MAR3.9_IPSL-CM5-MR_rcp85_ocean_1960-2100_v4.nc,MARv3.14-monthly-ERA5-1975_2023.nc,0.00035951721823768016,1.3031590628518641,0.493371968873716,1.9124240010066462,2.4671519,3.3358316,0.7642231,0.014944338,7.482034,43.963886,-457.68546,188.17125,7.0
42,598555.1378521912,seasonal_calving_id_1_1975_2025.nc,0.00013383235307865612,MAR3.9_CNRM-CM6_ssp126_ocean_1960-2100_v4.nc,DMI-HIRHAM5_ERA_1975_2021_EPSG3413_4500M_MM.nc,0.0002713132261466509,1.4042452345005174,0.4413088666665359,1.6197655924236958,2.100808,3.2874403,0.86955565,0.01583337,10.865057,43.968193,-233.21037,183.0364,3.0
43,634159.5535862842,seasonal_calving_id_1_1975_2025.nc,0.0001036395126651212,MAR3.9_MIROC-ESM-CHEM_rcp85_ocean_1960-2100_v4.nc,DMI-HIRHAM5_ERA_1975_2021_EPSG3413_4500M_MM.nc,0.0003326045700845935,1.5638218906102859,0.46449686053718575,2.7271488525735745,3.090666,3.4160395,0.79349875,0.019973861,6.6824603,43.186176,-433.4643,287.1586,36.0
44,350502.84634262905,seasonal_calving_id_2_1975_2025.nc,0.00014403590425049565,MAR3.9_HadGEM2-ES_rcp85_ocean_1960-2100_v4.nc,MARv3.14-monthly-ERA5-1975_2023.nc,0.00024114364124406393,1.6998513827693684,0.5254341452880052,1.3781972659822495,1.959871,3.3778217,0.76087934,0.022267923,6.412014,41.408348,-621.86664,816.20807,36.0
45,399260.2151508577,seasonal_calving_id_6_1975_2025.nc,0.00012876582016679793,MAR3.9_UKESM1-CM6_ssp585_ocean_1960-2100_v4.nc,MARv3.14-monthly-ERA5-1975_2023.nc,0.00029815756690536094,1.5795098368274778,0.35602769955617847,2.2149371306141497,2.2338436,3.306577,0.78771555,0.015684672,6.2229853,41.46694,-513.9316,384.47083,48.0
46,630207.6276013001,seasonal_calving_id_3_1975_2025.nc,0.0001492745622918722,MAR3.9_CNRM-CM6_ssp585_ocean_1960-2100_v4.nc,MARv3.14-monthly-ERA5-1975_2023.nc,0.0002700346545469189,1.1119733819095226,0.6546212568392475,1.716573556587607,2.3045661,3.3781912,0.8126885,0.022112565,5.626618,44.869957,-342.20047,270.08054,11.0
47,554273.3083108556,seasonal_calving_id_4_1975_2025.nc,0.00014030183013380134,MAR3.9_CSIRO-Mk3.6_rcp85_ocean_1960-2100_v4.nc,DMI-HIRHAM5_ERA_1975_2021_EPSG3413_4500M_MM.nc,0.0002415866214503423,1.4415239942493807,0.4614868684029984,2.1734596317400445,2.6644826,3.3334308,0.8151956,0.026934354,6.2694373,44.331562,-290.33893,721.09955,20.0
48,524363.8855816945,seasonal_calving_id_1_1975_2025.nc,0.00010336620377295081,MAR3.9_NorESM1-M_rcp85_ocean_1960-2100_v4.nc,DMI-HIRHAM5_ERA_1975_2021_EPSG3413_4500M_MM.nc,0.0002870787415157652,1.0374042507098213,0.6847872641970211,2.771202685730942,2.685022,3.3116593,0.59583235,0.017439844,6.6625686,43.77822,-587.07947,438.9717,40.0
49,378057.36406831356,seasonal_calving_id_2_1975_2025.nc,0.00011288541143125098,MAR3.9_ACCESS1-3_rcp85_ocean_1960-2100_v4.nc,MARv3.14-monthly-ERA5-1975_2023.nc,0.00028548608237346845,1.0498583002110027,0.555831250226238,2.555226173402727,2.8743,3.269072,0.78707945,0.021574432,8.20465,42.563046,-316.26755,197.7463,38.0
50,391858.43995796435,seasonal_calving_id_0_1975_2025.nc,7.759776453057624e-05,MAR3.9_CNRM-ESM2_ssp585_ocean_1960-2100_v4.nc,MARv3.14-monthly-ERA5-1975_2023.nc,0.00034799673319481757,1.026397585232384,0.44775360097876704,1.652937194049549,2.2517893,3.2551055,0.7458242,0.018575013,7.4582157,41.805195,-260.3018,199.32964,16.0
51,636360.2047943566,seasonal_calving_id_2_1975_2025.nc,0.0001346350861123315,MAR3.9_MIROC-ESM-CHEM_rcp26_ocean_1960-2100_v4.nc,DMI-HIRHAM5_ERA_1975_2021_EPSG3413_4500M_MM.nc,0.00029025770885579257,1.542932012707901,0.6733270160418439,2.5135986363901814,2.3449626,3.3580594,0.8149771,0.016067635,5.3923097,44.8078,-415.94907,256.53168,27.0
52,495473.3167419038,seasonal_calving_id_4_1975_2025.nc,0.00010559905236065996,MAR3.9_MIROC-ESM-CHEM_rcp26_ocean_1960-2100_v4.nc,DMI-HIRHAM5_ERA_1975_2021_EPSG3413_4500M_MM.nc,0.00032172584820507624,1.3531402166020443,0.30511726166317504,2.632072551617602,3.4858177,3.3226664,0.6479907,0.018989649,7.512026,41.21955,-458.886,203.2334,47.0
53,615246.8793202939,seasonal_calving_id_6_1975_2025.nc,0.0001308462683263183,MAR3.9_UKESM1-CM6_ssp585_ocean_1960-2100_v4.nc,DMI-HIRHAM5_ERA_1975_2021_EPSG3413_4500M_MM.nc,0.00030853718057485125,1.6564874029975392,0.6960113651446127,1.1777472271537124,2.7365313,3.316005,0.85346603,0.020777194,8.257099,41.581425,-343.86285,202.08687,41.0
54,646948.4971697512,seasonal_calving_id_0_1975_2025.nc,0.00014278817402658782,MAR3.9_CNRM-CM6_ssp126_ocean_1960-2100_v4.nc,DMI-HIRHAM5_ERA_1975_2021_EPSG3413_4500M_MM.nc,0.000316034742368863,1.154376852626665,0.6161230857041378,1.887955936540874,2.6737127,3.2874644,0.8107673,0.01785249,7.935112,41.765774,-307.42902,203.91142,29.0
55,410121.71460937435,seasonal_calving_id_5_1975_2025.nc,8.594514621469098e-05,MAR3.9_UKESM1-CM6_ssp585_ocean_1960-2100_v4.nc,MARv3.14-monthly-ERA5-1975_2023.nc,0.0003034756878238097,1.2792809912140528,0.4770318777093498,2.2416312537938428,2.869084,3.355636,0.79409844,0.020514144,7.8194227,41.907043,-278.26923,335.50824,11.0
56,501602.9997880424,seasonal_calving_id_4_1975_2025.nc,0.00014699572003606433,MAR3.9_CNRM-ESM2_ssp585_ocean_1960-2100_v4.nc,DMI-HIRHAM5_ERA_1975_2021_EPSG3413_4500M_MM.nc,0.00035457042181199334,1.6674901449845079,0.5360715506229949,2.1561251150848335,2.7870712,3.358647,0.82805586,0.019743664,7.8109994,42.39147,-393.79358,279.31772,9.0
57,487129.9640381058,seasonal_calving_id_0_1975_2025.nc,0.00014369983087904312,MAR3.9_CSIRO-Mk3.6_rcp85_ocean_1960-2100_v4.nc,DMI-HIRHAM5_ERA_1975_2021_EPSG3413_4500M_MM.nc,0.00029919835838180164,1.425083961478696,0.516856614265465,1.4379805817930773,2.6248078,3.2846437,0.8398235,0.014083867,6.531369,44.508297,-496.55362,197.92677,24.0
58,440194.4397549004,seasonal_calving_id_0_1975_2025.nc,7.800698832686218e-05,MAR3.9_IPSL-CM5-MR_rcp85_ocean_1960-2100_v4.nc,MARv3.14-monthly-ERA5-1975_2023.nc,0.0003584392906078099,1.5861358936255363,0.3637777609326329,1.8079948221114266,2.2167838,3.2951462,0.62898034,0.014752677,7.7831492,43.616997,-619.12427,446.02478,44.0
59,552050.4020829791,seasonal_calving_id_0_1975_2025.nc,0.00013904407943287603,MAR3.9_ACCESS1-3_rcp85_ocean_1960-2100_v4.nc,MARv3.14-monthly-ERA5-1975_2023.nc,0.0002828428801357508,1.360107060870413,0.5454879595390021,1.5460515097673377,1.8476831,3.3001006,0.6595066,0.017737878,11.194401,43.54187,-419.59708,531.3785,3.0
60,604419.8095004983,seasonal_calving_id_3_1975_2025.nc,0.00013152974241016326,MAR3.9_NorESM1-M_rcp85_ocean_1960-2100_v4.nc,DMI-HIRHAM5_ERA_1975_2021_EPSG3413_4500M_MM.nc,0.00029311281305279295,1.459576039016056,0.6955394676745759,1.191049163497739,2.922961,3.2723684,0.72114134,0.02111893,6.4625173,41.16406,-320.10168,96.64479,42.0
61,425394.0847715894,seasonal_calving_id_6_1975_2025.nc,9.426910578385265e-05,MAR3.9_UKESM1-CM6_ssp585_ocean_1960-2100_v4.nc,DMI-HIRHAM5_ERA_1975_2021_EPSG3413_4500M_MM.nc,0.00033536850328338015,1.599318841330899,0.6813840258326354,1.9229582927973792,2.3021243,3.316275,0.76564664,0.015474859,7.5517464,44.034557,-379.83264,321.49924,37.0
62,409633.1747111688,seasonal_calving_id_6_1975_2025.nc,0.00010624113314009587,MAR3.9_ACCESS1-3_rcp85_ocean_1960-2100_v4.nc,MARv3.14-monthly-ERA5-1975_2023.nc,0.00027644424348260066,1.202463634729509,0.3251842157494654,1.6769068592040193,2.3046787,3.3331852,0.6638135,0.015958866,5.726767,43.6271,-585.75995,369.75348,34.0
63,353512.9348281117,seasonal_calving_id_2_1975_2025.nc,0.00012487196211667846,MAR3.9_HadGEM2-ES_rcp85_ocean_1960-2100_v4.nc,MARv3.14-monthly-ERA5-1975_2023.nc,0.00034037595304438724,1.3720630512917775,0.39126754597198854,1.7947725346036414,2.950491,3.3459618,0.70492035,0.024771648,7.5759635,40.963116,-372.50986,280.43375,10.0
64,512702.97541475215,seasonal_calving_id_5_1975_2025.nc,8.510045861251191e-05,MAR3.9_HadGEM2-ES_rcp85_ocean_1960-2100_v4.nc,MARv3.14-monthly-ERA5-1975_2023.nc,0.0002465727586658913,1.535022742701092,0.3875426991875505,1.3920695310047375,2.418314,3.3374548,0.7611986,0.018537443,6.220648,42.897236,-400.21136,289.28406,29.0
65,384427.5059573989,seasonal_calving_id_4_1975_2025.nc,0.00012376602196939436,MAR3.9_IPSL-CM5-MR_rcp85_ocean_1960-2100_v4.nc,DMI-HIRHAM5_ERA_1975_2021_EPSG3413_4500M_MM.nc,0.00034184571201356716,1.1704151734526267,0.45065303058386397,2.2569114353641213,2.8811672,3.3759925,0.81790555,0.023388952,7.5389504,44.76275,-246.80315,203.3651,19.0
66,459271.731600501,seasonal_calving_id_4_1975_2025.nc,0.00013701790860272154,MAR3.9_CNRM-CM6_ssp126_ocean_1960-2100_v4.nc,DMI-HIRHAM5_ERA_1975_2021_EPSG3413_4500M_MM.nc,0.0003003414440256199,1.3441703484032572,0.6020069744787029,2.783401678238583,2.5281994,3.3062043,0.7231348,0.02049403,7.7579656,41.515606,-382.9923,490.16827,12.0
67,599696.1189048615,seasonal_calving_id_3_1975_2025.nc,0.00012268316258623154,MAR3.9_HadGEM2-ES_rcp85_ocean_1960-2100_v4.nc,MARv3.14-monthly-ERA5-1975_2023.nc,0.00028593250527672527,1.232485589543331,0.6617882738894283,2.468142732346749,2.0606797,3.2670813,0.790912,0.02589428,5.9376917,41.702625,-304.05698,601.7588,26.0
68,396069.71063265065,seasonal_calving_id_1_1975_2025.nc,0.00013629002749578133,MAR3.9_NorESM1-M_rcp85_ocean_1960-2100_v4.nc,MARv3.14-monthly-ERA5-1975_2023.nc,0.0003343189747355556,1.6783714841356299,0.6709579893049857,2.1222686559809656,2.8774843,3.3482955,0.85825753,0.026079495,6.44563,41.126186,-373.72345,621.56146,19.0
69,480469.3145840039,seasonal_calving_id_6_1975_2025.nc,0.0001398112111248914,MAR3.9_ACCESS1-3_rcp85_ocean_1960-2100_v4.nc,MARv3.14-monthly-ERA5-1975_2023.nc,0.00033684251968005784,1.5312735151570214,0.6507270474419921,1.473226312013359,2.8964293,3.2973468,0.7706998,0.023493545,5.2538347,42.524082,-258.2487,287.30014,30.0
70,362702.59202777606,seasonal_calving_id_4_1975_2025.nc,0.00012768689560955994,MAR3.9_CNRM-CM6_ssp126_ocean_1960-2100_v4.nc,MARv3.14-monthly-ERA5-1975_2023.nc,0.00032941155266321553,1.0761183309159377,0.48837479521103666,2.273998879005292,2.9591453,3.3079567,0.75135136,0.019081715,7.8131785,40.14882,-315.63232,141.70413,17.0
71,465614.0368942605,seasonal_calving_id_2_1975_2025.nc,0.00014704651467208134,MAR3.9_CNRM-CM6_ssp585_ocean_1960-2100_v4.nc,DMI-HIRHAM5_ERA_1975_2021_EPSG3413_4500M_MM.nc,0.00035356645950323476,1.4734692297711462,0.48259110753376533,1.11140022260569,2.7093449,3.2253559,0.73935163,0.0172301,8.909834,40.895325,-297.98404,214.99678,35.0
72,530178.7979606005,seasonal_calving_id_5_1975_2025.nc,9.680444777097726e-05,MAR3.9_CSIRO-Mk3.6_rcp85_ocean_1960-2100_v4.nc,MARv3.14-monthly-ERA5-1975_2023.nc,0.00024415221867126434,1.3784318230798422,0.6910754512296589,1.8796807655361851,2.6379087,3.301626,0.8050138,0.014999054,6.406763,41.28006,-522.7236,124.2796,8.0
73,463335.48782725225,seasonal_calving_id_1_1975_2025.nc,0.00011565235580386618,MAR3.9_MIROC-ESM-CHEM_rcp85_ocean_1960-2100_v4.nc,MARv3.14-monthly-ERA5-1975_2023.nc,0.00025981075007760107,1.1372047468953745,0.47333021815913773,2.5820277998988614,2.4224648,3.287958,0.86696,0.024563134,8.027772,41.12389,-244.5185,644.34937,20.0
74,470082.8409924252,seasonal_calving_id_5_1975_2025.nc,8.063015067960428e-05,MAR3.9_NorESM1-M_rcp85_ocean_1960-2100_v4.nc,DMI-HIRHAM5_ERA_1975_2021_EPSG3413_4500M_MM.nc,0.00027377938331258917,1.5462835324118114,0.37981882046103665,2.663420964757954,2.130381,3.3335426,0.7134664,0.01595922,6.7078056,43.5506,-551.8486,501.97476,13.0
75,542740.3676112202,seasonal_calving_id_6_1975_2025.nc,0.00010860117135426025,MAR3.9_CNRM-CM6_ssp126_ocean_1960-2100_v4.nc,MARv3.14-monthly-ERA5-1975_2023.nc,0.0003507584475193492,1.1782713959364997,0.5918827962143353,2.316927496805331,2.828005,3.2843509,0.5660702,0.02049124,9.711099,41.30683,-371.9545,306.70477,18.0
76,638103.0243479226,seasonal_calving_id_3_1975_2025.nc,0.00010745747123924126,MAR3.9_NorESM1-M_rcp85_ocean_1960-2100_v4.nc,MARv3.14-monthly-ERA5-1975_2023.nc,0.00027865769013139856,1.1184930238789221,0.5433383630090538,1.740540182202885,2.8398693,3.3227,0.5908964,0.017847808,10.922107,44.090485,-285.77133,247.44377,15.0
77,477022.59322422853,seasonal_calving_id_4_1975_2025.nc,8.311004912199218e-05,MAR3.9_UKESM1-CM6_ssp585_ocean_1960-2100_v4.nc,MARv3.14-monthly-ERA5-1975_2023.nc,0.00025867139009073817,1.1854293912051048,0.33894235134807227,2.6735752335613006,2.4182746,3.283335,0.80879396,0.021873822,6.2234144,42.1208,-335.54782,517.2795,27.0
78,419222.2711989441,seasonal_calving_id_5_1975_2025.nc,0.00010006598047774185,MAR3.9_IPSL-CM5-MR_rcp85_ocean_1960-2100_v4.nc,MARv3.14-monthly-ERA5-1975_2023.nc,0.00028435822955719006,1.6166639881821365,0.39530407963854985,2.49336123431194,1.7414186,3.3452284,0.7992852,0.013658267,9.825473,44.390438,-385.9185,221.50629,6.0
79,539109.4636249382,seasonal_calving_id_0_1975_2025.nc,9.30665605891784e-05,MAR3.9_NorESM1-M_rcp85_ocean_1960-2100_v4.nc,DMI-HIRHAM5_ERA_1975_2021_EPSG3413_4500M_MM.nc,0.00032513275385494353,1.0925154100734873,0.40702103434925074,1.6428823701675819,2.686554,3.2464604,0.776084,0.016222667,7.9848046,41.22499,-294.9792,178.97284,14.0
80,392208.0909524027,seasonal_calving_id_1_1975_2025.nc,0.00014917176462027,MAR3.9_CNRM-ESM2_ssp585_ocean_1960-2100_v4.nc,DMI-HIRHAM5_ERA_1975_2021_EPSG3413_4500M_MM.nc,0.0003272085025652978,1.6087009466590265,0.37200483383947447,2.1002493402607048,2.742715,3.3608363,0.6458365,0.014154356,8.413742,43.290527,-459.21036,94.51317,5.0
81,627094.7992675727,seasonal_calving_id_1_1975_2025.nc,7.887516609671798e-05,MAR3.9_CNRM-ESM2_ssp585_ocean_1960-2100_v4.nc,MARv3.14-monthly-ERA5-1975_2023.nc,0.0002962826378115024,1.0304378401106535,0.31103687970281996,1.3018618669757807,2.8901854,3.3452337,0.8205965,0.020191725,9.309886,44.59197,-292.6926,195.53365,38.0
82,499547.5870917146,seasonal_calving_id_3_1975_2025.nc,8.694252611092643e-05,MAR3.9_HadGEM2-ES_rcp85_ocean_1960-2100_v4.nc,DMI-HIRHAM5_ERA_1975_2021_EPSG3413_4500M_MM.nc,0.00025643271863369705,1.5105149174643366,0.5061692447478935,2.5769520417870475,2.6878242,3.3918202,0.7628187,0.01924655,7.158043,41.93824,-342.665,158.1458,11.0
83,587446.6648001694,seasonal_calving_id_5_1975_2025.nc,0.00010105543975402421,MAR3.9_CNRM-ESM2_ssp585_ocean_1960-2100_v4.nc,DMI-HIRHAM5_ERA_1975_2021_EPSG3413_4500M_MM.nc,0.000260736761802892,1.1192494164659514,0.418298042892897,2.2263937285089774,3.0600045,3.2658844,0.67182815,0.020458873,6.9090023,43.615757,-396.25055,255.2837,3.0
84,547924.5716858641,seasonal_calving_id_1_1975_2025.nc,0.00011111047843767604,MAR3.9_IPSL-CM5-MR_rcp85_ocean_1960-2100_v4.nc,MARv3.14-monthly-ERA5-1975_2023.nc,0.00028064736792736373,1.085283306109352,0.36994435289478367,1.3671465956086588,2.7765265,3.3806808,0.8451754,0.023149418,5.658008,41.548687,-285.92578,484.90494,48.0
85,490741.8621958151,seasonal_calving_id_5_1975_2025.nc,0.00010951727341811777,MAR3.9_ACCESS1-3_rcp85_ocean_1960-2100_v4.nc,MARv3.14-monthly-ERA5-1975_2023.nc,0.000278215512846719,1.058864239897972,0.5603548356196182,2.33154286674006,2.188467,3.3146524,0.7314049,0.020940589,9.793971,42.065132,-300.19946,359.59854,24.0
86,439531.5130918409,seasonal_calving_id_0_1975_2025.nc,9.756554004747033e-05,MAR3.9_CNRM-ESM2_ssp585_ocean_1960-2100_v4.nc,MARv3.14-monthly-ERA5-1975_2023.nc,0.00028819666178408966,1.204015567917601,0.4201602970477413,1.5029841581734702,2.7854583,3.2951095,0.77070487,0.01842659,7.59606,44.116405,-377.96594,341.61194,43.0
87,374141.1293642875,seasonal_calving_id_3_1975_2025.nc,0.00011910458545256764,MAR3.9_MIROC-ESM-CHEM_rcp85_ocean_1960-2100_v4.nc,DMI-HIRHAM5_ERA_1975_2021_EPSG3413_4500M_MM.nc,0.00031444947288580946,1.3183095355748373,0.4571694656662338,1.3146244874419697,3.166976,3.3460822,0.80603325,0.015312501,9.157521,44.57658,-434.12137,305.18695,0.0
88,443997.3325952896,seasonal_calving_id_2_1975_2025.nc,0.00011941277000807233,MAR3.9_MIROC-ESM-CHEM_rcp26_ocean_1960-2100_v4.nc,DMI-HIRHAM5_ERA_1975_2021_EPSG3413_4500M_MM.nc,0.00034886512868374645,1.6114138910557272,0.6278432284089124,1.152092317484577,2.6004636,3.2838485,0.8406508,0.02066069,9.123537,40.606903,-327.44293,98.09427,43.0
89,360792.540062795,seasonal_calving_id_5_1975_2025.nc,8.101398080276154e-05,MAR3.9_CNRM-CM6_ssp585_ocean_1960-2100_v4.nc,DMI-HIRHAM5_ERA_1975_2021_EPSG3413_4500M_MM.nc,0.000291587347388648,1.131015892600452,0.5924938726658494,2.494966385727675,2.701459,3.3504999,0.72415507,0.013505934,9.190111,44.353424,-299.2332,96.16188,33.0
90,428665.8310544037,seasonal_calving_id_4_1975_2025.nc,0.00012011684142150026,MAR3.9_CNRM-ESM2_ssp585_ocean_1960-2100_v4.nc,MARv3.14-monthly-ERA5-1975_2023.nc,0.00034570677496877273,1.1402046435008268,0.4696826025625169,2.4380518317868867,2.690243,3.3294127,0.81312716,0.022480464,5.834541,42.212265,-286.5252,218.18474,9.0
91,493054.3960057533,seasonal_calving_id_0_1975_2025.nc,9.186831050319655e-05,MAR3.9_UKESM1-CM6_ssp585_ocean_1960-2100_v4.nc,MARv3.14-monthly-ERA5-1975_2023.nc,0.00028181145520638244,1.0457594159301307,0.6352863865217999,2.1938708985256725,2.3328147,3.2817988,0.72182214,0.014221685,8.229716,43.16355,-366.90137,108.03424,28.0
92,575308.1627189326,seasonal_calving_id_2_1975_2025.nc,0.000129060615763062,MAR3.9_MIROC-ESM-CHEM_rcp26_ocean_1960-2100_v4.nc,DMI-HIRHAM5_ERA_1975_2021_EPSG3413_4500M_MM.nc,0.0003278971087094798,1.414266075832961,0.5776115609755585,2.690112569005711,2.4108484,3.3199487,0.7689028,0.013565085,6.8429217,44.845768,-374.36877,82.78053,42.0
93,484567.7728910772,seasonal_calving_id_6_1975_2025.nc,9.053620291646834e-05,MAR3.9_MIROC-ESM-CHEM_rcp26_ocean_1960-2100_v4.nc,MARv3.14-monthly-ERA5-1975_2023.nc,0.00029722446643996967,1.2227029036731973,0.5133146117252796,2.3687459083079574,2.6583407,3.3022928,0.72405696,0.015520353,8.618048,41.933105,-285.39932,115.14529,28.0
94,521687.07159094646,seasonal_calving_id_2_1975_2025.nc,0.0001260426493537334,MAR3.9_CNRM-CM6_ssp585_ocean_1960-2100_v4.nc,MARv3.14-monthly-ERA5-1975_2023.nc,0.00024961219490847935,1.3250451337352451,0.3501404916715638,2.394054447036875,2.4617872,3.337997,0.89405775,0.017400604,7.175407,43.350918,-330.78696,275.1053,35.0
95,367554.62540064077,seasonal_calving_id_4_1975_2025.nc,0.00011067681396829387,MAR3.9_MIROC-ESM-CHEM_rcp26_ocean_1960-2100_v4.nc,MARv3.14-monthly-ERA5-1975_2023.nc,0.0002920071074434731,1.4389033039177892,0.322501516805055,2.3061536542211014,1.9837922,3.2977731,0.6744421,0.014599726,11.006855,43.126945,-341.0509,286.51144,20.0
96,567050.1857837117,seasonal_calving_id_2_1975_2025.nc,0.00011353601987831632,MAR3.9_MIROC-ESM-CHEM_rcp85_ocean_1960-2100_v4.nc,DMI-HIRHAM5_ERA_1975_2021_EPSG3413_4500M_MM.nc,0.0002450580191863613,1.6453918763022206,0.5030526796828476,2.5434195556914583,2.48335,3.2901874,0.7608751,0.017993467,7.3281155,42.638798,-404.17334,376.29282,21.0
97,623612.4998981964,seasonal_calving_id_5_1975_2025.nc,9.870824266317577e-05,MAR3.9_CNRM-CM6_ssp126_ocean_1960-2100_v4.nc,MARv3.14-monthly-ERA5-1975_2023.nc,0.0003193823848788023,1.331251539787732,0.4140352806036303,2.032211454849085,2.919885,3.2828643,0.68444735,0.018886626,7.544587,43.943306,-419.5636,339.98105,20.0
98,581843.1597521962,seasonal_calving_id_1_1975_2025.nc,8.238010886263796e-05,MAR3.9_UKESM1-CM6_ssp585_ocean_1960-2100_v4.nc,MARv3.14-monthly-ERA5-1975_2023.nc,0.00030436047967699934,1.3856257630223714,0.5963733819605043,2.080207406501028,2.6575062,3.3303185,0.8341019,0.015546208,10.988632,43.83207,-375.0401,86.4076,5.0
99,538909.1135490349,seasonal_calving_id_6_1975_2025.nc,9.94219904950254e-05,MAR3.9_IPSL-CM5-MR_rcp85_ocean_1960-2100_v4.nc,DMI-HIRHAM5_ERA_1975_2021_EPSG3413_4500M_MM.nc,0.0003318287600902694,1.3688662787688446,0.510129437364337,2.045806384509196,2.0516624,3.312359,0.78248376,0.019065596,11.369892,41.76891,-128.02663,157.0756,14.0
