id,calving.vonmises_calving.sigma_max,calving.rate_scaling.file,ocean.th.gamma_T,ocean_file,climate_file,frontal_melt.routing.parameter_a,frontal_melt.routing.parameter_b,frontal_melt.routing.power_alpha,frontal_melt.routing.power_beta,prescribed_retreat_file,stress_balance.sia.enhancement_factor,stress_balance.ssa.Glen_exponent,basal_resistance.pseudo_plastic.q,basal_yield_stress.mohr_coulomb.till_effective_fraction_overburden,basal_yield_stress.mohr_coulomb.topg_to_phi.phi_min,basal_yield_stress.mohr_coulomb.topg_to_phi.phi_max,basal_yield_stress.mohr_coulomb.topg_to_phi.topg_min,basal_yield_stress.mohr_coulomb.topg_to_phi.topg_max
0,479308.8423088193,seasonal_calving_id_5_1900_2025.nc,0.00013548095750156788,MAR3.9_ACCESS1-3_rcp85_ocean_1960-2100_v4.nc,HIRHAM5-monthly-ERA5_1975_2021.nc,0.0003407853597030044,1.4884430943988263,0.6321793430484832,1.6643602719530464,pism_g450m_frontretreat_calfin_1972_2019.nc,1.9018396,3.299505,0.73261654,0.012281087,5.4509544,43.309277,-590.17255,195.7463
1,508487.8398105502,seasonal_calving_id_5_1900_2025.nc,0.00013548095750156788,MAR3.9_ACCESS1-3_rcp85_ocean_1960-2100_v4.nc,HIRHAM5-monthly-ERA5_1975_2021.nc,0.0003407853597030044,1.4884430943988263,0.6321793430484832,1.6643602719530464,pism_g450m_frontretreat_calfin_1972_2019.nc,2.4162629,3.2763512,0.5622043,0.017094066,5.634074,42.94963,-456.80573,111.69031
2,479308.8423088193,seasonal_calving_id_4_1900_2025.nc,0.00013548095750156788,MAR3.9_ACCESS1-3_rcp85_ocean_1960-2100_v4.nc,HIRHAM5-monthly-ERA5_1975_2021.nc,0.0003407853597030044,1.4884430943988263,0.6321793430484832,1.6643602719530464,pism_g450m_frontretreat_calfin_1972_2019.nc,3.136221,3.336245,0.560466,0.019223697,11.704212,44.455784,-438.7894,329.5564
3,479308.8423088193,seasonal_calving_id_5_1900_2025.nc,0.00010357951226178555,MAR3.9_ACCESS1-3_rcp85_ocean_1960-2100_v4.nc,HIRHAM5-monthly-ERA5_1975_2021.nc,0.0003407853597030044,1.4884430943988263,0.6321793430484832,1.6643602719530464,pism_g450m_frontretreat_calfin_1972_2019.nc,2.492242,3.2808692,0.7447561,0.021477517,7.238022,40.911674,-436.27835,472.82956
4,479308.8423088193,seasonal_calving_id_5_1900_2025.nc,0.00013548095750156788,MAR3.9_IPSL-CM5-MR_rcp85_ocean_1960-2100_v4.nc,HIRHAM5-monthly-ERA5_1975_2021.nc,0.0003407853597030044,1.4884430943988263,0.6321793430484832,1.6643602719530464,pism_g450m_frontretreat_calfin_1972_2019.nc,2.8576138,3.331976,0.8270116,0.017739672,5.4648046,43.43049,-342.17123,40.88833
5,479308.8423088193,seasonal_calving_id_5_1900_2025.nc,0.00013548095750156788,MAR3.9_ACCESS1-3_rcp85_ocean_1960-2100_v4.nc,MARv3.14-monthly-ERA5_1940_2023.nc,0.0003407853597030044,1.4884430943988263,0.6321793430484832,1.6643602719530464,pism_g450m_frontretreat_calfin_1972_2019.nc,3.1257145,3.312038,0.73096603,0.021314884,6.289281,42.7658,-335.78537,437.16827
6,479308.8423088193,seasonal_calving_id_5_1900_2025.nc,0.00013548095750156788,MAR3.9_ACCESS1-3_rcp85_ocean_1960-2100_v4.nc,HIRHAM5-monthly-ERA5_1975_2021.nc,0.00028355408761650323,1.4884430943988263,0.6321793430484832,1.6643602719530464,pism_g450m_frontretreat_calfin_1972_2019.nc,2.6631436,3.2792242,0.69424653,0.018090263,12.861543,43.27901,-469.09058,490.85446
7,479308.8423088193,seasonal_calving_id_5_1900_2025.nc,0.00013548095750156788,MAR3.9_ACCESS1-3_rcp85_ocean_1960-2100_v4.nc,HIRHAM5-monthly-ERA5_1975_2021.nc,0.0003407853597030044,1.053501815162599,0.6321793430484832,1.6643602719530464,pism_g450m_frontretreat_calfin_1972_2019.nc,2.407705,3.3725226,0.869536,0.016326878,8.36098,43.487255,-317.7022,149.67383
8,479308.8423088193,seasonal_calving_id_5_1900_2025.nc,0.00013548095750156788,MAR3.9_ACCESS1-3_rcp85_ocean_1960-2100_v4.nc,HIRHAM5-monthly-ERA5_1975_2021.nc,0.0003407853597030044,1.4884430943988263,0.4470717678312212,1.6643602719530464,pism_g450m_frontretreat_calfin_1972_2019.nc,2.5116012,3.3369913,0.8343502,0.017593607,6.135306,43.03478,-429.31165,103.63592
9,479308.8423088193,seasonal_calving_id_5_1900_2025.nc,0.00013548095750156788,MAR3.9_ACCESS1-3_rcp85_ocean_1960-2100_v4.nc,HIRHAM5-monthly-ERA5_1975_2021.nc,0.0003407853597030044,1.4884430943988263,0.6321793430484832,1.6372979394160212,pism_g450m_frontretreat_calfin_1972_2019.nc,2.151846,3.3592985,0.84433156,0.016457813,6.2995763,44.148453,-580.3474,456.59827
10,479308.8423088193,seasonal_calving_id_5_1900_2025.nc,0.00013548095750156788,MAR3.9_ACCESS1-3_rcp85_ocean_1960-2100_v4.nc,HIRHAM5-monthly-ERA5_1975_2021.nc,0.0003407853597030044,1.4884430943988263,0.6321793430484832,1.6643602719530464,,3.05511,3.3129082,0.6599801,0.020064717,5.677355,44.131187,-534.123,365.72778
11,479308.8423088193,seasonal_calving_id_4_1900_2025.nc,0.00010357951226178555,MAR3.9_IPSL-CM5-MR_rcp85_ocean_1960-2100_v4.nc,MARv3.14-monthly-ERA5_1940_2023.nc,0.00028355408761650323,1.053501815162599,0.4470717678312212,1.6372979394160212,,2.8082726,3.326176,0.63956887,0.024293866,9.928174,43.31905,-257.3244,384.8781
12,508487.8398105502,seasonal_calving_id_5_1900_2025.nc,0.00010357951226178555,MAR3.9_IPSL-CM5-MR_rcp85_ocean_1960-2100_v4.nc,MARv3.14-monthly-ERA5_1940_2023.nc,0.00028355408761650323,1.053501815162599,0.4470717678312212,1.6372979394160212,,2.3332887,3.3316998,0.7994166,0.019153971,8.173192,43.163532,-369.4174,361.98303
13,508487.8398105502,seasonal_calving_id_4_1900_2025.nc,0.00013548095750156788,MAR3.9_IPSL-CM5-MR_rcp85_ocean_1960-2100_v4.nc,MARv3.14-monthly-ERA5_1940_2023.nc,0.00028355408761650323,1.053501815162599,0.4470717678312212,1.6372979394160212,,2.9580874,3.3215408,0.6998829,0.015322144,7.689975,43.747314,-381.71884,182.25523
14,508487.8398105502,seasonal_calving_id_4_1900_2025.nc,0.00010357951226178555,MAR3.9_ACCESS1-3_rcp85_ocean_1960-2100_v4.nc,MARv3.14-monthly-ERA5_1940_2023.nc,0.00028355408761650323,1.053501815162599,0.4470717678312212,1.6372979394160212,,2.5885754,3.254612,0.59805226,0.01832593,7.154369,41.234833,-386.7738,322.68228
15,508487.8398105502,seasonal_calving_id_4_1900_2025.nc,0.00010357951226178555,MAR3.9_IPSL-CM5-MR_rcp85_ocean_1960-2100_v4.nc,HIRHAM5-monthly-ERA5_1975_2021.nc,0.00028355408761650323,1.053501815162599,0.4470717678312212,1.6372979394160212,,2.7758946,3.2711656,0.67273545,0.023206301,7.437249,42.501717,-309.7118,346.2098
16,508487.8398105502,seasonal_calving_id_4_1900_2025.nc,0.00010357951226178555,MAR3.9_IPSL-CM5-MR_rcp85_ocean_1960-2100_v4.nc,MARv3.14-monthly-ERA5_1940_2023.nc,0.0003407853597030044,1.053501815162599,0.4470717678312212,1.6372979394160212,,2.9340892,3.3310497,0.6529221,0.019971784,8.846604,44.414574,-362.5191,339.25058
17,508487.8398105502,seasonal_calving_id_4_1900_2025.nc,0.00010357951226178555,MAR3.9_IPSL-CM5-MR_rcp85_ocean_1960-2100_v4.nc,MARv3.14-monthly-ERA5_1940_2023.nc,0.00028355408761650323,1.4884430943988263,0.4470717678312212,1.6372979394160212,,2.5979307,3.3391035,0.7676727,0.01968407,6.001401,43.64022,-472.56372,559.15326
18,508487.8398105502,seasonal_calving_id_4_1900_2025.nc,0.00010357951226178555,MAR3.9_IPSL-CM5-MR_rcp85_ocean_1960-2100_v4.nc,MARv3.14-monthly-ERA5_1940_2023.nc,0.00028355408761650323,1.053501815162599,0.6321793430484832,1.6372979394160212,,3.0430267,3.3014345,0.6806189,0.02452333,6.73502,41.83306,-425.09744,296.086
19,508487.8398105502,seasonal_calving_id_4_1900_2025.nc,0.00010357951226178555,MAR3.9_IPSL-CM5-MR_rcp85_ocean_1960-2100_v4.nc,MARv3.14-monthly-ERA5_1940_2023.nc,0.00028355408761650323,1.053501815162599,0.4470717678312212,1.6643602719530464,,2.6303747,3.2988615,0.770027,0.02014358,5.4201846,41.04809,-418.95618,223.30917
20,508487.8398105502,seasonal_calving_id_4_1900_2025.nc,0.00010357951226178555,MAR3.9_IPSL-CM5-MR_rcp85_ocean_1960-2100_v4.nc,MARv3.14-monthly-ERA5_1940_2023.nc,0.00028355408761650323,1.053501815162599,0.4470717678312212,1.6372979394160212,pism_g450m_frontretreat_calfin_1972_2019.nc,2.5763626,3.321745,0.76702905,0.0131452875,6.7491264,43.17074,-548.3707,137.88612
21,508487.8398105502,seasonal_calving_id_4_1900_2025.nc,0.00010357951226178555,MAR3.9_IPSL-CM5-MR_rcp85_ocean_1960-2100_v4.nc,MARv3.14-monthly-ERA5_1940_2023.nc,0.00028355408761650323,1.053501815162599,0.4470717678312212,1.6372979394160212,,3.3130395,3.3096964,0.7231161,0.023507794,6.9278307,43.24007,-345.4385,174.65208
22,565945.6974826753,seasonal_calving_id_1_1900_2025.nc,9.698087268043308e-05,MAR3.9_NorESM1-M_rcp85_ocean_1960-2100_v4.nc,RACMO2.3p2_ERA5_FGRN055_1940_2023.nc,0.0002721012715995312,1.312901722174138,0.314844558481127,1.3895526736043395,,2.8007314,3.318617,0.7062974,0.018032813,8.1454315,40.764713,-395.9113,118.84116
23,367424.53472688794,seasonal_calving_id_1_1900_2025.nc,9.698087268043308e-05,MAR3.9_NorESM1-M_rcp85_ocean_1960-2100_v4.nc,RACMO2.3p2_ERA5_FGRN055_1940_2023.nc,0.0002721012715995312,1.312901722174138,0.314844558481127,1.3895526736043395,,2.1111052,3.25631,0.75257844,0.018372484,6.1714015,42.3587,-371.18,207.0219
24,565945.6974826753,seasonal_calving_id_0_1900_2025.nc,9.698087268043308e-05,MAR3.9_NorESM1-M_rcp85_ocean_1960-2100_v4.nc,RACMO2.3p2_ERA5_FGRN055_1940_2023.nc,0.0002721012715995312,1.312901722174138,0.314844558481127,1.3895526736043395,,2.4853466,3.2488122,0.8597179,0.018155115,6.165745,44.176006,-341.52554,293.3352
25,565945.6974826753,seasonal_calving_id_1_1900_2025.nc,0.00014860290926881135,MAR3.9_NorESM1-M_rcp85_ocean_1960-2100_v4.nc,RACMO2.3p2_ERA5_FGRN055_1940_2023.nc,0.0002721012715995312,1.312901722174138,0.314844558481127,1.3895526736043395,,2.8067822,3.3699446,0.80703604,0.015546679,6.1951694,41.81485,-528.6967,176.87662
26,565945.6974826753,seasonal_calving_id_1_1900_2025.nc,9.698087268043308e-05,MAR3.9_CNRM-ESM2_ssp585_ocean_1960-2100_v4.nc,RACMO2.3p2_ERA5_FGRN055_1940_2023.nc,0.0002721012715995312,1.312901722174138,0.314844558481127,1.3895526736043395,,2.5617654,3.2238953,0.6490742,0.018007616,7.9218354,41.905804,-439.27322,394.7674
27,565945.6974826753,seasonal_calving_id_1_1900_2025.nc,9.698087268043308e-05,MAR3.9_NorESM1-M_rcp85_ocean_1960-2100_v4.nc,MARv3.14-monthly-ERA5_1940_2023.nc,0.0002721012715995312,1.312901722174138,0.314844558481127,1.3895526736043395,,2.6471748,3.2612464,0.8244634,0.025293073,5.377551,43.67215,-226.5174,438.13712
28,565945.6974826753,seasonal_calving_id_1_1900_2025.nc,9.698087268043308e-05,MAR3.9_NorESM1-M_rcp85_ocean_1960-2100_v4.nc,RACMO2.3p2_ERA5_FGRN055_1940_2023.nc,0.00035388431522995233,1.312901722174138,0.314844558481127,1.3895526736043395,,2.4047859,3.3310804,0.71547097,0.016378218,6.210064,41.138844,-504.52817,313.57425
29,565945.6974826753,seasonal_calving_id_1_1900_2025.nc,9.698087268043308e-05,MAR3.9_NorESM1-M_rcp85_ocean_1960-2100_v4.nc,RACMO2.3p2_ERA5_FGRN055_1940_2023.nc,0.0002721012715995312,1.6545558221638204,0.314844558481127,1.3895526736043395,,2.9089913,3.2576287,0.779391,0.01795696,7.832698,43.97208,-317.36685,103.330475
30,565945.6974826753,seasonal_calving_id_1_1900_2025.nc,9.698087268043308e-05,MAR3.9_NorESM1-M_rcp85_ocean_1960-2100_v4.nc,RACMO2.3p2_ERA5_FGRN055_1940_2023.nc,0.0002721012715995312,1.312901722174138,0.7856467526871711,1.3895526736043395,,2.6367874,3.3377182,0.5825137,0.017019784,5.7485228,41.47611,-611.679,279.9592
31,565945.6974826753,seasonal_calving_id_1_1900_2025.nc,9.698087268043308e-05,MAR3.9_NorESM1-M_rcp85_ocean_1960-2100_v4.nc,RACMO2.3p2_ERA5_FGRN055_1940_2023.nc,0.0002721012715995312,1.312901722174138,0.314844558481127,1.330352897848934,,2.8077953,3.3163323,0.8274615,0.01631564,5.9554324,41.86607,-253.64445,102.79031
32,565945.6974826753,seasonal_calving_id_1_1900_2025.nc,9.698087268043308e-05,MAR3.9_NorESM1-M_rcp85_ocean_1960-2100_v4.nc,RACMO2.3p2_ERA5_FGRN055_1940_2023.nc,0.0002721012715995312,1.312901722174138,0.314844558481127,1.3895526736043395,pism_g450m_frontretreat_calfin_1972_2019.nc,2.821701,3.357653,0.7863442,0.021737613,5.6929107,41.780968,-270.0659,433.88925
33,565945.6974826753,seasonal_calving_id_0_1900_2025.nc,0.00014860290926881135,MAR3.9_CNRM-ESM2_ssp585_ocean_1960-2100_v4.nc,MARv3.14-monthly-ERA5_1940_2023.nc,0.00035388431522995233,1.6545558221638204,0.7856467526871711,1.330352897848934,pism_g450m_frontretreat_calfin_1972_2019.nc,2.5038452,3.306564,0.8121898,0.018062571,7.968687,44.085243,-326.33286,352.8924
34,367424.53472688794,seasonal_calving_id_1_1900_2025.nc,0.00014860290926881135,MAR3.9_CNRM-ESM2_ssp585_ocean_1960-2100_v4.nc,MARv3.14-monthly-ERA5_1940_2023.nc,0.00035388431522995233,1.6545558221638204,0.7856467526871711,1.330352897848934,pism_g450m_frontretreat_calfin_1972_2019.nc,2.2824638,3.3577437,0.785381,0.014593289,8.111932,42.8153,-350.40298,157.95955
35,367424.53472688794,seasonal_calving_id_0_1900_2025.nc,9.698087268043308e-05,MAR3.9_CNRM-ESM2_ssp585_ocean_1960-2100_v4.nc,MARv3.14-monthly-ERA5_1940_2023.nc,0.00035388431522995233,1.6545558221638204,0.7856467526871711,1.330352897848934,pism_g450m_frontretreat_calfin_1972_2019.nc,2.3191369,3.2905662,0.63091004,0.016243938,5.9718294,43.54651,-548.7274,341.72607
36,367424.53472688794,seasonal_calving_id_0_1900_2025.nc,0.00014860290926881135,MAR3.9_NorESM1-M_rcp85_ocean_1960-2100_v4.nc,MARv3.14-monthly-ERA5_1940_2023.nc,0.00035388431522995233,1.6545558221638204,0.7856467526871711,1.330352897848934,pism_g450m_frontretreat_calfin_1972_2019.nc,2.8585737,3.2857969,0.6197862,0.021605026,5.278085,43.473923,-348.77948,268.8283
37,367424.53472688794,seasonal_calving_id_0_1900_2025.nc,0.00014860290926881135,MAR3.9_CNRM-ESM2_ssp585_ocean_1960-2100_v4.nc,RACMO2.3p2_ERA5_FGRN055_1940_2023.nc,0.00035388431522995233,1.6545558221638204,0.7856467526871711,1.330352897848934,pism_g450m_frontretreat_calfin_1972_2019.nc,2.7057621,3.254785,0.7791554,0.022220211,6.181814,41.64653,-294.5763,462.9656
38,367424.53472688794,seasonal_calving_id_0_1900_2025.nc,0.00014860290926881135,MAR3.9_CNRM-ESM2_ssp585_ocean_1960-2100_v4.nc,MARv3.14-monthly-ERA5_1940_2023.nc,0.0002721012715995312,1.6545558221638204,0.7856467526871711,1.330352897848934,pism_g450m_frontretreat_calfin_1972_2019.nc,3.4179046,3.3172698,0.7994252,0.021664672,5.486793,43.067677,-268.342,237.14432
39,367424.53472688794,seasonal_calving_id_0_1900_2025.nc,0.00014860290926881135,MAR3.9_CNRM-ESM2_ssp585_ocean_1960-2100_v4.nc,MARv3.14-monthly-ERA5_1940_2023.nc,0.00035388431522995233,1.312901722174138,0.7856467526871711,1.330352897848934,pism_g450m_frontretreat_calfin_1972_2019.nc,2.552077,3.2157302,0.72910804,0.022894735,9.491881,42.49673,-140.6659,239.57056
40,367424.53472688794,seasonal_calving_id_0_1900_2025.nc,0.00014860290926881135,MAR3.9_CNRM-ESM2_ssp585_ocean_1960-2100_v4.nc,MARv3.14-monthly-ERA5_1940_2023.nc,0.00035388431522995233,1.6545558221638204,0.314844558481127,1.330352897848934,pism_g450m_frontretreat_calfin_1972_2019.nc,2.4561179,3.2728937,0.6109272,0.018125335,5.8432336,42.483047,-388.032,252.59816
41,367424.53472688794,seasonal_calving_id_0_1900_2025.nc,0.00014860290926881135,MAR3.9_CNRM-ESM2_ssp585_ocean_1960-2100_v4.nc,MARv3.14-monthly-ERA5_1940_2023.nc,0.00035388431522995233,1.6545558221638204,0.7856467526871711,1.3895526736043395,pism_g450m_frontretreat_calfin_1972_2019.nc,2.306663,3.2939749,0.6350083,0.01760648,7.7201552,41.406963,-495.86475,232.86467
42,367424.53472688794,seasonal_calving_id_0_1900_2025.nc,0.00014860290926881135,MAR3.9_CNRM-ESM2_ssp585_ocean_1960-2100_v4.nc,MARv3.14-monthly-ERA5_1940_2023.nc,0.00035388431522995233,1.6545558221638204,0.7856467526871711,1.330352897848934,,2.9743917,3.3072205,0.6134214,0.025474064,6.2965865,42.447178,-420.09833,383.04373
43,367424.53472688794,seasonal_calving_id_0_1900_2025.nc,0.00014860290926881135,MAR3.9_CNRM-ESM2_ssp585_ocean_1960-2100_v4.nc,MARv3.14-monthly-ERA5_1940_2023.nc,0.00035388431522995233,1.6545558221638204,0.7856467526871711,1.330352897848934,pism_g450m_frontretreat_calfin_1972_2019.nc,2.6388135,3.2931907,0.81331563,0.01635883,8.644326,41.928802,-270.47522,204.6762
44,579479.6762987971,seasonal_calving_id_3_1900_2025.nc,0.00011689822229091077,MAR3.9_CSIRO-Mk3.6_rcp85_ocean_1960-2100_v4.nc,MARv3.14-monthly-ERA5_1940_2023.nc,0.00025481875374913215,1.563201609440148,0.5003241998143494,1.1760984194464983,,2.940292,3.3071723,0.6814492,0.021681523,5.2621565,43.178192,-417.86072,198.5068
45,467002.091743052,seasonal_calving_id_3_1900_2025.nc,0.00011689822229091077,MAR3.9_CSIRO-Mk3.6_rcp85_ocean_1960-2100_v4.nc,MARv3.14-monthly-ERA5_1940_2023.nc,0.00025481875374913215,1.563201609440148,0.5003241998143494,1.1760984194464983,,2.5487032,3.3251727,0.8439827,0.017693631,9.366275,42.3923,-159.48526,85.49043
46,579479.6762987971,seasonal_calving_id_2_1900_2025.nc,0.00011689822229091077,MAR3.9_CSIRO-Mk3.6_rcp85_ocean_1960-2100_v4.nc,MARv3.14-monthly-ERA5_1940_2023.nc,0.00025481875374913215,1.563201609440148,0.5003241998143494,1.1760984194464983,,2.359279,3.306852,0.82429594,0.017502425,5.469476,41.555553,-348.69754,250.64558
47,579479.6762987971,seasonal_calving_id_3_1900_2025.nc,8.501118638087063e-05,MAR3.9_CSIRO-Mk3.6_rcp85_ocean_1960-2100_v4.nc,MARv3.14-monthly-ERA5_1940_2023.nc,0.00025481875374913215,1.563201609440148,0.5003241998143494,1.1760984194464983,,3.0040023,3.2951822,0.78694344,0.02045508,6.4246435,42.48793,-254.73293,179.90923
48,579479.6762987971,seasonal_calving_id_3_1900_2025.nc,0.00011689822229091077,MAR3.9_NorESM1-M_rcp85_ocean_1960-2100_v4.nc,MARv3.14-monthly-ERA5_1940_2023.nc,0.00025481875374913215,1.563201609440148,0.5003241998143494,1.1760984194464983,,3.0759878,3.352933,0.78371006,0.019168943,10.558539,40.586514,-187.52866,155.88412
49,579479.6762987971,seasonal_calving_id_3_1900_2025.nc,0.00011689822229091077,MAR3.9_CSIRO-Mk3.6_rcp85_ocean_1960-2100_v4.nc,RACMO2.3p2_ERA5_FGRN055_1940_2023.nc,0.00025481875374913215,1.563201609440148,0.5003241998143494,1.1760984194464983,,2.8123708,3.3116148,0.7973704,0.023189273,5.288221,40.492855,-397.8318,380.91205
50,579479.6762987971,seasonal_calving_id_3_1900_2025.nc,0.00011689822229091077,MAR3.9_CSIRO-Mk3.6_rcp85_ocean_1960-2100_v4.nc,MARv3.14-monthly-ERA5_1940_2023.nc,0.00026316884614527227,1.563201609440148,0.5003241998143494,1.1760984194464983,,2.261076,3.2792754,0.7621096,0.019482264,8.5964985,41.886597,-301.95764,23.15068
51,579479.6762987971,seasonal_calving_id_3_1900_2025.nc,0.00011689822229091077,MAR3.9_CSIRO-Mk3.6_rcp85_ocean_1960-2100_v4.nc,MARv3.14-monthly-ERA5_1940_2023.nc,0.00025481875374913215,1.4437985537573694,0.5003241998143494,1.1760984194464983,,2.5976207,3.2956398,0.6685717,0.016860645,9.847212,41.678825,-317.01843,283.99274
52,579479.6762987971,seasonal_calving_id_3_1900_2025.nc,0.00011689822229091077,MAR3.9_CSIRO-Mk3.6_rcp85_ocean_1960-2100_v4.nc,MARv3.14-monthly-ERA5_1940_2023.nc,0.00025481875374913215,1.563201609440148,0.3282742295879871,1.1760984194464983,,2.9638362,3.257493,0.6271727,0.018338893,7.4012136,43.912643,-381.4266,146.90344
53,579479.6762987971,seasonal_calving_id_3_1900_2025.nc,0.00011689822229091077,MAR3.9_CSIRO-Mk3.6_rcp85_ocean_1960-2100_v4.nc,MARv3.14-monthly-ERA5_1940_2023.nc,0.00025481875374913215,1.563201609440148,0.5003241998143494,1.1781250911764802,,2.4526386,3.3707342,0.79626197,0.01971684,12.195057,44.572624,-178.1917,319.57657
54,579479.6762987971,seasonal_calving_id_3_1900_2025.nc,0.00011689822229091077,MAR3.9_CSIRO-Mk3.6_rcp85_ocean_1960-2100_v4.nc,MARv3.14-monthly-ERA5_1940_2023.nc,0.00025481875374913215,1.563201609440148,0.5003241998143494,1.1760984194464983,,2.3270488,3.2540205,0.60431004,0.02005534,5.9821,43.86536,-450.6834,345.28787
55,579479.6762987971,seasonal_calving_id_2_1900_2025.nc,8.501118638087063e-05,MAR3.9_NorESM1-M_rcp85_ocean_1960-2100_v4.nc,RACMO2.3p2_ERA5_FGRN055_1940_2023.nc,0.00026316884614527227,1.4437985537573694,0.3282742295879871,1.1781250911764802,,2.6157336,3.2508154,0.7111011,0.021893641,8.948087,41.3433,-264.7348,260.81015
56,467002.091743052,seasonal_calving_id_3_1900_2025.nc,8.501118638087063e-05,MAR3.9_NorESM1-M_rcp85_ocean_1960-2100_v4.nc,RACMO2.3p2_ERA5_FGRN055_1940_2023.nc,0.00026316884614527227,1.4437985537573694,0.3282742295879871,1.1781250911764802,,2.900021,3.3067565,0.8289433,0.024876907,6.0629177,43.44649,-218.37706,349.86298
57,467002.091743052,seasonal_calving_id_2_1900_2025.nc,0.00011689822229091077,MAR3.9_NorESM1-M_rcp85_ocean_1960-2100_v4.nc,RACMO2.3p2_ERA5_FGRN055_1940_2023.nc,0.00026316884614527227,1.4437985537573694,0.3282742295879871,1.1781250911764802,,2.3680532,3.3216474,0.7959873,0.027532987,6.14097,44.487316,-331.09067,560.59454
58,467002.091743052,seasonal_calving_id_2_1900_2025.nc,8.501118638087063e-05,MAR3.9_CSIRO-Mk3.6_rcp85_ocean_1960-2100_v4.nc,RACMO2.3p2_ERA5_FGRN055_1940_2023.nc,0.00026316884614527227,1.4437985537573694,0.3282742295879871,1.1781250911764802,,3.1217666,3.2597291,0.6930229,0.020962112,6.175308,42.726566,-325.31375,187.62834
59,467002.091743052,seasonal_calving_id_2_1900_2025.nc,8.501118638087063e-05,MAR3.9_NorESM1-M_rcp85_ocean_1960-2100_v4.nc,MARv3.14-monthly-ERA5_1940_2023.nc,0.00026316884614527227,1.4437985537573694,0.3282742295879871,1.1781250911764802,,1.914408,3.31414,0.656099,0.016183356,5.8510866,41.013485,-471.1319,94.62421
60,467002.091743052,seasonal_calving_id_2_1900_2025.nc,8.501118638087063e-05,MAR3.9_NorESM1-M_rcp85_ocean_1960-2100_v4.nc,RACMO2.3p2_ERA5_FGRN055_1940_2023.nc,0.00025481875374913215,1.4437985537573694,0.3282742295879871,1.1781250911764802,,2.8954992,3.336923,0.57943255,0.015086862,6.486428,42.90759,-593.40735,205.44183
61,467002.091743052,seasonal_calving_id_2_1900_2025.nc,8.501118638087063e-05,MAR3.9_NorESM1-M_rcp85_ocean_1960-2100_v4.nc,RACMO2.3p2_ERA5_FGRN055_1940_2023.nc,0.00026316884614527227,1.563201609440148,0.3282742295879871,1.1781250911764802,,2.8729355,3.3044684,0.7253988,0.01483164,7.178998,42.96996,-380.1397,155.1859
62,467002.091743052,seasonal_calving_id_2_1900_2025.nc,8.501118638087063e-05,MAR3.9_NorESM1-M_rcp85_ocean_1960-2100_v4.nc,RACMO2.3p2_ERA5_FGRN055_1940_2023.nc,0.00026316884614527227,1.4437985537573694,0.5003241998143494,1.1781250911764802,,3.1362941,3.3431551,0.7508123,0.022346733,7.722137,43.629307,-401.255,562.0068
63,467002.091743052,seasonal_calving_id_2_1900_2025.nc,8.501118638087063e-05,MAR3.9_NorESM1-M_rcp85_ocean_1960-2100_v4.nc,RACMO2.3p2_ERA5_FGRN055_1940_2023.nc,0.00026316884614527227,1.4437985537573694,0.3282742295879871,1.1760984194464983,,2.103149,3.2540836,0.60799646,0.015136137,5.1737747,42.99333,-450.40726,220.75656
64,467002.091743052,seasonal_calving_id_2_1900_2025.nc,8.501118638087063e-05,MAR3.9_NorESM1-M_rcp85_ocean_1960-2100_v4.nc,RACMO2.3p2_ERA5_FGRN055_1940_2023.nc,0.00026316884614527227,1.4437985537573694,0.3282742295879871,1.1781250911764802,,2.0137,3.2529478,0.911486,0.015282484,6.5869246,42.715424,-345.2671,225.50778
65,467002.091743052,seasonal_calving_id_2_1900_2025.nc,8.501118638087063e-05,MAR3.9_NorESM1-M_rcp85_ocean_1960-2100_v4.nc,RACMO2.3p2_ERA5_FGRN055_1940_2023.nc,0.00026316884614527227,1.4437985537573694,0.3282742295879871,1.1781250911764802,,2.6614492,3.3155997,0.61058426,0.016479842,5.9254127,44.53853,-477.15186,307.39246
66,375503.82940098643,seasonal_calving_id_0_1900_2025.nc,7.806360789109021e-05,MAR3.9_IPSL-CM5-MR_rcp85_ocean_1960-2100_v4.nc,HIRHAM5-monthly-ERA5_1975_2021.nc,0.00030604372825473547,1.0361368326470255,0.7152568069286644,1.6149727292358875,pism_g450m_frontretreat_calfin_1972_2019.nc,2.5604188,3.3089137,0.7163474,0.015421648,8.631423,44.54141,-339.19122,172.62677
67,624471.6607965529,seasonal_calving_id_0_1900_2025.nc,7.806360789109021e-05,MAR3.9_IPSL-CM5-MR_rcp85_ocean_1960-2100_v4.nc,HIRHAM5-monthly-ERA5_1975_2021.nc,0.00030604372825473547,1.0361368326470255,0.7152568069286644,1.6149727292358875,pism_g450m_frontretreat_calfin_1972_2019.nc,2.2853131,3.2893016,0.60084456,0.018315807,6.5493207,41.081837,-493.36874,377.042
68,375503.82940098643,seasonal_calving_id_6_1900_2025.nc,7.806360789109021e-05,MAR3.9_IPSL-CM5-MR_rcp85_ocean_1960-2100_v4.nc,HIRHAM5-monthly-ERA5_1975_2021.nc,0.00030604372825473547,1.0361368326470255,0.7152568069286644,1.6149727292358875,pism_g450m_frontretreat_calfin_1972_2019.nc,2.7732677,3.3164966,0.827454,0.017245008,5.5655603,42.710167,-458.36133,299.3898
69,375503.82940098643,seasonal_calving_id_0_1900_2025.nc,0.00012908701649866998,MAR3.9_IPSL-CM5-MR_rcp85_ocean_1960-2100_v4.nc,HIRHAM5-monthly-ERA5_1975_2021.nc,0.00030604372825473547,1.0361368326470255,0.7152568069286644,1.6149727292358875,pism_g450m_frontretreat_calfin_1972_2019.nc,2.5124335,3.3277483,0.79368365,0.018971333,6.397544,43.388607,-377.3504,225.96637
70,375503.82940098643,seasonal_calving_id_0_1900_2025.nc,7.806360789109021e-05,MAR3.9_ACCESS1-3_rcp85_ocean_1960-2100_v4.nc,HIRHAM5-monthly-ERA5_1975_2021.nc,0.00030604372825473547,1.0361368326470255,0.7152568069286644,1.6149727292358875,pism_g450m_frontretreat_calfin_1972_2019.nc,1.7473508,3.3276353,0.79390025,0.013777236,5.9129167,44.0345,-443.89194,121.263016
71,375503.82940098643,seasonal_calving_id_0_1900_2025.nc,7.806360789109021e-05,MAR3.9_IPSL-CM5-MR_rcp85_ocean_1960-2100_v4.nc,HIRHAM5-monthly-ERA5_1975_2021.nc,0.00030604372825473547,1.0361368326470255,0.7152568069286644,1.6149727292358875,pism_g450m_frontretreat_calfin_1972_2019.nc,2.3373346,3.2751715,0.5972873,0.0217113,7.742416,41.69646,-288.09213,191.20107
72,375503.82940098643,seasonal_calving_id_0_1900_2025.nc,7.806360789109021e-05,MAR3.9_IPSL-CM5-MR_rcp85_ocean_1960-2100_v4.nc,HIRHAM5-monthly-ERA5_1975_2021.nc,0.0003147419712692499,1.0361368326470255,0.7152568069286644,1.6149727292358875,pism_g450m_frontretreat_calfin_1972_2019.nc,3.2157388,3.2680857,0.7825914,0.019601999,5.6677527,42.048878,-417.07437,340.18936
73,375503.82940098643,seasonal_calving_id_0_1900_2025.nc,7.806360789109021e-05,MAR3.9_IPSL-CM5-MR_rcp85_ocean_1960-2100_v4.nc,HIRHAM5-monthly-ERA5_1975_2021.nc,0.00030604372825473547,1.2590411633253098,0.7152568069286644,1.6149727292358875,pism_g450m_frontretreat_calfin_1972_2019.nc,2.9153855,3.2993138,0.5985717,0.019876054,7.9754457,42.210533,-489.36838,335.59503
74,375503.82940098643,seasonal_calving_id_0_1900_2025.nc,7.806360789109021e-05,MAR3.9_IPSL-CM5-MR_rcp85_ocean_1960-2100_v4.nc,HIRHAM5-monthly-ERA5_1975_2021.nc,0.00030604372825473547,1.0361368326470255,0.6681077735964209,1.6149727292358875,pism_g450m_frontretreat_calfin_1972_2019.nc,2.7369695,3.2545044,0.73974246,0.018643148,8.030151,41.620773,-395.9839,42.404095
75,375503.82940098643,seasonal_calving_id_0_1900_2025.nc,7.806360789109021e-05,MAR3.9_IPSL-CM5-MR_rcp85_ocean_1960-2100_v4.nc,HIRHAM5-monthly-ERA5_1975_2021.nc,0.00030604372825473547,1.0361368326470255,0.7152568069286644,1.4850701848976315,pism_g450m_frontretreat_calfin_1972_2019.nc,2.7704663,3.3471594,0.83619905,0.02355793,6.1505613,43.760254,-295.33902,390.04117
76,375503.82940098643,seasonal_calving_id_0_1900_2025.nc,7.806360789109021e-05,MAR3.9_IPSL-CM5-MR_rcp85_ocean_1960-2100_v4.nc,HIRHAM5-monthly-ERA5_1975_2021.nc,0.00030604372825473547,1.0361368326470255,0.7152568069286644,1.6149727292358875,pism_g450m_frontretreat_calfin_1972_2019.nc,2.9068727,3.280275,0.61875784,0.019900527,6.051644,41.210415,-480.8551,177.075
77,375503.82940098643,seasonal_calving_id_6_1900_2025.nc,0.00012908701649866998,MAR3.9_ACCESS1-3_rcp85_ocean_1960-2100_v4.nc,HIRHAM5-monthly-ERA5_1975_2021.nc,0.0003147419712692499,1.2590411633253098,0.6681077735964209,1.4850701848976315,pism_g450m_frontretreat_calfin_1972_2019.nc,2.5455399,3.3450246,0.84120256,0.017982299,8.153284,44.253105,-326.51044,141.43918
78,624471.6607965529,seasonal_calving_id_0_1900_2025.nc,0.00012908701649866998,MAR3.9_ACCESS1-3_rcp85_ocean_1960-2100_v4.nc,HIRHAM5-monthly-ERA5_1975_2021.nc,0.0003147419712692499,1.2590411633253098,0.6681077735964209,1.4850701848976315,pism_g450m_frontretreat_calfin_1972_2019.nc,2.4074688,3.3042204,0.7284783,0.015890637,5.2918887,42.22628,-547.5034,271.94617
79,624471.6607965529,seasonal_calving_id_6_1900_2025.nc,7.806360789109021e-05,MAR3.9_ACCESS1-3_rcp85_ocean_1960-2100_v4.nc,HIRHAM5-monthly-ERA5_1975_2021.nc,0.0003147419712692499,1.2590411633253098,0.6681077735964209,1.4850701848976315,pism_g450m_frontretreat_calfin_1972_2019.nc,2.3042762,3.331822,0.67879844,0.02347744,9.100996,40.614113,-469.9382,450.70734
80,624471.6607965529,seasonal_calving_id_6_1900_2025.nc,0.00012908701649866998,MAR3.9_IPSL-CM5-MR_rcp85_ocean_1960-2100_v4.nc,HIRHAM5-monthly-ERA5_1975_2021.nc,0.0003147419712692499,1.2590411633253098,0.6681077735964209,1.4850701848976315,pism_g450m_frontretreat_calfin_1972_2019.nc,3.0199392,3.3105173,0.7435218,0.02034073,5.6884227,43.628494,-319.7689,180.06583
81,624471.6607965529,seasonal_calving_id_6_1900_2025.nc,0.00012908701649866998,MAR3.9_ACCESS1-3_rcp85_ocean_1960-2100_v4.nc,HIRHAM5-monthly-ERA5_1975_2021.nc,0.0003147419712692499,1.2590411633253098,0.6681077735964209,1.4850701848976315,pism_g450m_frontretreat_calfin_1972_2019.nc,2.647391,3.3291535,0.85874116,0.021295425,6.8796234,42.215084,-284.3566,185.50844
82,624471.6607965529,seasonal_calving_id_6_1900_2025.nc,0.00012908701649866998,MAR3.9_ACCESS1-3_rcp85_ocean_1960-2100_v4.nc,HIRHAM5-monthly-ERA5_1975_2021.nc,0.00030604372825473547,1.2590411633253098,0.6681077735964209,1.4850701848976315,pism_g450m_frontretreat_calfin_1972_2019.nc,2.893084,3.3111012,0.7378831,0.023107123,5.3360496,42.075596,-284.9089,363.92206
83,624471.6607965529,seasonal_calving_id_6_1900_2025.nc,0.00012908701649866998,MAR3.9_ACCESS1-3_rcp85_ocean_1960-2100_v4.nc,HIRHAM5-monthly-ERA5_1975_2021.nc,0.0003147419712692499,1.0361368326470255,0.6681077735964209,1.4850701848976315,pism_g450m_frontretreat_calfin_1972_2019.nc,3.1537848,3.3434358,0.8108094,0.021187328,5.5376124,41.629948,-519.4652,396.15445
84,624471.6607965529,seasonal_calving_id_6_1900_2025.nc,0.00012908701649866998,MAR3.9_ACCESS1-3_rcp85_ocean_1960-2100_v4.nc,HIRHAM5-monthly-ERA5_1975_2021.nc,0.0003147419712692499,1.2590411633253098,0.7152568069286644,1.4850701848976315,pism_g450m_frontretreat_calfin_1972_2019.nc,2.799054,3.345884,0.8270149,0.017492028,5.148652,40.79351,-463.59967,226.24438
85,624471.6607965529,seasonal_calving_id_6_1900_2025.nc,0.00012908701649866998,MAR3.9_ACCESS1-3_rcp85_ocean_1960-2100_v4.nc,HIRHAM5-monthly-ERA5_1975_2021.nc,0.0003147419712692499,1.2590411633253098,0.6681077735964209,1.6149727292358875,pism_g450m_frontretreat_calfin_1972_2019.nc,2.8864808,3.2810369,0.712503,0.02450852,6.789024,43.194305,-292.29413,366.70135
86,624471.6607965529,seasonal_calving_id_6_1900_2025.nc,0.00012908701649866998,MAR3.9_ACCESS1-3_rcp85_ocean_1960-2100_v4.nc,HIRHAM5-monthly-ERA5_1975_2021.nc,0.0003147419712692499,1.2590411633253098,0.6681077735964209,1.4850701848976315,pism_g450m_frontretreat_calfin_1972_2019.nc,2.7220361,3.3617938,0.6828199,0.017803932,6.311759,43.730762,-386.5093,239.19928
87,624471.6607965529,seasonal_calving_id_6_1900_2025.nc,0.00012908701649866998,MAR3.9_ACCESS1-3_rcp85_ocean_1960-2100_v4.nc,HIRHAM5-monthly-ERA5_1975_2021.nc,0.0003147419712692499,1.2590411633253098,0.6681077735964209,1.4850701848976315,pism_g450m_frontretreat_calfin_1972_2019.nc,2.5510404,3.281315,0.6850528,0.018548476,10.268041,41.09984,-176.82695,62.19061
88,401895.6848420203,seasonal_calving_id_5_1900_2025.nc,0.00011113078957423567,MAR3.9_MIROC-ESM-CHEM_rcp26_ocean_1960-2100_v4.nc,HIRHAM5-monthly-ERA5_1975_2021.nc,0.0003570296440646053,1.613023813907057,0.5469993244390935,1.2449926330707968,,1.7598931,3.3056242,0.81844175,0.014952474,5.440202,40.43975,-519.65985,257.03995
89,449721.0473753512,seasonal_calving_id_5_1900_2025.nc,0.00011113078957423567,MAR3.9_MIROC-ESM-CHEM_rcp26_ocean_1960-2100_v4.nc,HIRHAM5-monthly-ERA5_1975_2021.nc,0.0003570296440646053,1.613023813907057,0.5469993244390935,1.2449926330707968,,2.3388999,3.2907772,0.8823312,0.015484727,5.4949474,43.33428,-399.21667,83.4547
90,401895.6848420203,seasonal_calving_id_6_1900_2025.nc,0.00011113078957423567,MAR3.9_MIROC-ESM-CHEM_rcp26_ocean_1960-2100_v4.nc,HIRHAM5-monthly-ERA5_1975_2021.nc,0.0003570296440646053,1.613023813907057,0.5469993244390935,1.2449926330707968,,2.7802591,3.3328717,0.88417333,0.021228664,6.1786757,40.867382,-457.19638,314.67377
91,401895.6848420203,seasonal_calving_id_5_1900_2025.nc,7.713345454540103e-05,MAR3.9_MIROC-ESM-CHEM_rcp26_ocean_1960-2100_v4.nc,HIRHAM5-monthly-ERA5_1975_2021.nc,0.0003570296440646053,1.613023813907057,0.5469993244390935,1.2449926330707968,,3.417634,3.3687258,0.6833375,0.025718741,4.9846015,42.964226,-469.12924,556.6476
92,401895.6848420203,seasonal_calving_id_5_1900_2025.nc,0.00011113078957423567,MAR3.9_CSIRO-Mk3.6_rcp85_ocean_1960-2100_v4.nc,HIRHAM5-monthly-ERA5_1975_2021.nc,0.0003570296440646053,1.613023813907057,0.5469993244390935,1.2449926330707968,,2.5228915,3.2830217,0.7770994,0.015877403,7.076546,40.86448,-414.39902,200.10977
93,401895.6848420203,seasonal_calving_id_5_1900_2025.nc,0.00011113078957423567,MAR3.9_MIROC-ESM-CHEM_rcp26_ocean_1960-2100_v4.nc,HIRHAM5-monthly-ERA5_1975_2021.nc,0.0003570296440646053,1.613023813907057,0.5469993244390935,1.2449926330707968,,2.6180372,3.2723036,0.64629585,0.020434283,8.521254,44.49807,-342.0733,341.23352
94,401895.6848420203,seasonal_calving_id_5_1900_2025.nc,0.00011113078957423567,MAR3.9_MIROC-ESM-CHEM_rcp26_ocean_1960-2100_v4.nc,HIRHAM5-monthly-ERA5_1975_2021.nc,0.00031647075533866885,1.613023813907057,0.5469993244390935,1.2449926330707968,,2.1819346,3.363209,0.73518384,0.018026173,6.2627845,43.650642,-419.82047,286.84045
95,401895.6848420203,seasonal_calving_id_5_1900_2025.nc,0.00011113078957423567,MAR3.9_MIROC-ESM-CHEM_rcp26_ocean_1960-2100_v4.nc,HIRHAM5-monthly-ERA5_1975_2021.nc,0.0003570296440646053,1.3329730762168766,0.5469993244390935,1.2449926330707968,,2.476553,3.3107593,0.7603822,0.014770071,8.068886,42.73202,-398.0058,312.08395
96,401895.6848420203,seasonal_calving_id_5_1900_2025.nc,0.00011113078957423567,MAR3.9_MIROC-ESM-CHEM_rcp26_ocean_1960-2100_v4.nc,HIRHAM5-monthly-ERA5_1975_2021.nc,0.0003570296440646053,1.613023813907057,0.5905223915819079,1.2449926330707968,,2.4980063,3.2724626,0.8255092,0.015061436,6.8555827,43.315594,-409.02917,217.87474
97,401895.6848420203,seasonal_calving_id_5_1900_2025.nc,0.00011113078957423567,MAR3.9_MIROC-ESM-CHEM_rcp26_ocean_1960-2100_v4.nc,HIRHAM5-monthly-ERA5_1975_2021.nc,0.0003570296440646053,1.613023813907057,0.5469993244390935,1.2607277274131776,,2.7624881,3.277069,0.6982356,0.016805664,5.5594745,44.25114,-450.93912,201.47763
98,401895.6848420203,seasonal_calving_id_5_1900_2025.nc,0.00011113078957423567,MAR3.9_MIROC-ESM-CHEM_rcp26_ocean_1960-2100_v4.nc,HIRHAM5-monthly-ERA5_1975_2021.nc,0.0003570296440646053,1.613023813907057,0.5469993244390935,1.2449926330707968,,2.4972146,3.3793828,0.7340772,0.01451078,5.457308,44.05433,-585.8142,138.1315
99,401895.6848420203,seasonal_calving_id_6_1900_2025.nc,7.713345454540103e-05,MAR3.9_CSIRO-Mk3.6_rcp85_ocean_1960-2100_v4.nc,HIRHAM5-monthly-ERA5_1975_2021.nc,0.00031647075533866885,1.3329730762168766,0.5905223915819079,1.2607277274131776,,3.1626866,3.3443098,0.86092937,0.01777252,8.407348,43.73242,-405.71558,154.92828
100,449721.0473753512,seasonal_calving_id_5_1900_2025.nc,7.713345454540103e-05,MAR3.9_CSIRO-Mk3.6_rcp85_ocean_1960-2100_v4.nc,HIRHAM5-monthly-ERA5_1975_2021.nc,0.00031647075533866885,1.3329730762168766,0.5905223915819079,1.2607277274131776,,2.8587673,3.2885237,0.66426116,0.020411754,6.258546,44.256462,-476.9002,489.69617
101,449721.0473753512,seasonal_calving_id_6_1900_2025.nc,0.00011113078957423567,MAR3.9_CSIRO-Mk3.6_rcp85_ocean_1960-2100_v4.nc,HIRHAM5-monthly-ERA5_1975_2021.nc,0.00031647075533866885,1.3329730762168766,0.5905223915819079,1.2607277274131776,,2.596449,3.3215718,0.8232965,0.021699263,9.822262,43.893333,-218.09213,544.20135
102,449721.0473753512,seasonal_calving_id_6_1900_2025.nc,7.713345454540103e-05,MAR3.9_MIROC-ESM-CHEM_rcp26_ocean_1960-2100_v4.nc,HIRHAM5-monthly-ERA5_1975_2021.nc,0.00031647075533866885,1.3329730762168766,0.5905223915819079,1.2607277274131776,,3.1509786,3.2866912,0.710891,0.018986298,4.9756923,41.757175,-444.79202,208.73286
103,449721.0473753512,seasonal_calving_id_6_1900_2025.nc,7.713345454540103e-05,MAR3.9_CSIRO-Mk3.6_rcp85_ocean_1960-2100_v4.nc,HIRHAM5-monthly-ERA5_1975_2021.nc,0.00031647075533866885,1.3329730762168766,0.5905223915819079,1.2607277274131776,,2.5095866,3.2448266,0.5924007,0.016797429,8.335615,44.69108,-416.93964,263.46494
104,449721.0473753512,seasonal_calving_id_6_1900_2025.nc,7.713345454540103e-05,MAR3.9_CSIRO-Mk3.6_rcp85_ocean_1960-2100_v4.nc,HIRHAM5-monthly-ERA5_1975_2021.nc,0.0003570296440646053,1.3329730762168766,0.5905223915819079,1.2607277274131776,,2.759944,3.2898939,0.71401215,0.024041755,7.343842,44.277542,-348.43915,556.2601
105,449721.0473753512,seasonal_calving_id_6_1900_2025.nc,7.713345454540103e-05,MAR3.9_CSIRO-Mk3.6_rcp85_ocean_1960-2100_v4.nc,HIRHAM5-monthly-ERA5_1975_2021.nc,0.00031647075533866885,1.613023813907057,0.5905223915819079,1.2607277274131776,,2.631321,3.3054297,0.6534731,0.016626341,11.800001,42.79712,-333.52682,185.81615
106,449721.0473753512,seasonal_calving_id_6_1900_2025.nc,7.713345454540103e-05,MAR3.9_CSIRO-Mk3.6_rcp85_ocean_1960-2100_v4.nc,HIRHAM5-monthly-ERA5_1975_2021.nc,0.00031647075533866885,1.3329730762168766,0.5469993244390935,1.2607277274131776,,2.53929,3.2587068,0.6788574,0.018713051,6.3627653,42.102818,-322.1884,141.4179
107,449721.0473753512,seasonal_calving_id_6_1900_2025.nc,7.713345454540103e-05,MAR3.9_CSIRO-Mk3.6_rcp85_ocean_1960-2100_v4.nc,HIRHAM5-monthly-ERA5_1975_2021.nc,0.00031647075533866885,1.3329730762168766,0.5905223915819079,1.2449926330707968,,3.099004,3.3357859,0.7028262,0.025715014,9.864181,43.178253,-177.96109,363.17856
108,449721.0473753512,seasonal_calving_id_6_1900_2025.nc,7.713345454540103e-05,MAR3.9_CSIRO-Mk3.6_rcp85_ocean_1960-2100_v4.nc,HIRHAM5-monthly-ERA5_1975_2021.nc,0.00031647075533866885,1.3329730762168766,0.5905223915819079,1.2607277274131776,,2.5210989,3.3226695,0.6400893,0.01901413,7.1730404,41.48846,-470.5143,294.9714
109,449721.0473753512,seasonal_calving_id_6_1900_2025.nc,7.713345454540103e-05,MAR3.9_CSIRO-Mk3.6_rcp85_ocean_1960-2100_v4.nc,HIRHAM5-monthly-ERA5_1975_2021.nc,0.00031647075533866885,1.3329730762168766,0.5905223915819079,1.2607277274131776,,2.6841373,3.27952,0.7804937,0.02068944,5.20043,43.694546,-397.47168,363.5096
110,643377.1096169949,seasonal_calving_id_1_1900_2025.nc,0.00014945717453956604,MAR3.9_CNRM-ESM2_ssp585_ocean_1960-2100_v4.nc,RACMO2.3p2_ERA5_FGRN055_1940_2023.nc,0.0002900691005587578,1.0902207960374652,0.8124196554999799,1.5006622558459641,pism_g450m_frontretreat_calfin_1972_2019.nc,2.7860832,3.320444,0.6780328,0.017589783,9.092865,44.52052,-368.32037,425.36133
111,608948.4306052327,seasonal_calving_id_1_1900_2025.nc,0.00014945717453956604,MAR3.9_CNRM-ESM2_ssp585_ocean_1960-2100_v4.nc,RACMO2.3p2_ERA5_FGRN055_1940_2023.nc,0.0002900691005587578,1.0902207960374652,0.8124196554999799,1.5006622558459641,pism_g450m_frontretreat_calfin_1972_2019.nc,2.7509134,3.2561424,0.8236571,0.021842344,7.115759,40.30663,-403.96902,400.1193
112,643377.1096169949,seasonal_calving_id_1_1900_2025.nc,0.00014945717453956604,MAR3.9_CNRM-ESM2_ssp585_ocean_1960-2100_v4.nc,RACMO2.3p2_ERA5_FGRN055_1940_2023.nc,0.0002900691005587578,1.0902207960374652,0.8124196554999799,1.5006622558459641,pism_g450m_frontretreat_calfin_1972_2019.nc,3.17626,3.3265178,0.79834247,0.021340027,9.30599,41.385666,-229.21495,197.55412
113,643377.1096169949,seasonal_calving_id_1_1900_2025.nc,0.00012128692120313644,MAR3.9_CNRM-ESM2_ssp585_ocean_1960-2100_v4.nc,RACMO2.3p2_ERA5_FGRN055_1940_2023.nc,0.0002900691005587578,1.0902207960374652,0.8124196554999799,1.5006622558459641,pism_g450m_frontretreat_calfin_1972_2019.nc,2.7085614,3.295705,0.6630032,0.018209068,7.651289,41.830235,-367.37735,222.2042
114,643377.1096169949,seasonal_calving_id_1_1900_2025.nc,0.00014945717453956604,MAR3.9_MIROC-ESM-CHEM_rcp85_ocean_1960-2100_v4.nc,RACMO2.3p2_ERA5_FGRN055_1940_2023.nc,0.0002900691005587578,1.0902207960374652,0.8124196554999799,1.5006622558459641,pism_g450m_frontretreat_calfin_1972_2019.nc,2.7370527,3.2806146,0.7770307,0.021244362,5.3059454,42.321007,-332.63028,225.07396
115,643377.1096169949,seasonal_calving_id_1_1900_2025.nc,0.00014945717453956604,MAR3.9_CNRM-ESM2_ssp585_ocean_1960-2100_v4.nc,RACMO2.3p2_ERA5_FGRN055_1940_2023.nc,0.0002900691005587578,1.0902207960374652,0.8124196554999799,1.5006622558459641,pism_g450m_frontretreat_calfin_1972_2019.nc,3.2917826,3.388531,0.87981623,0.017887639,6.934733,40.932632,-408.78534,64.72394
116,643377.1096169949,seasonal_calving_id_1_1900_2025.nc,0.00014945717453956604,MAR3.9_CNRM-ESM2_ssp585_ocean_1960-2100_v4.nc,RACMO2.3p2_ERA5_FGRN055_1940_2023.nc,0.00024620619535446167,1.0902207960374652,0.8124196554999799,1.5006622558459641,pism_g450m_frontretreat_calfin_1972_2019.nc,2.4809346,3.3309314,0.7460041,0.02016166,6.066203,41.438866,-374.43494,175.22699
117,643377.1096169949,seasonal_calving_id_1_1900_2025.nc,0.00014945717453956604,MAR3.9_CNRM-ESM2_ssp585_ocean_1960-2100_v4.nc,RACMO2.3p2_ERA5_FGRN055_1940_2023.nc,0.0002900691005587578,1.3642323330044746,0.8124196554999799,1.5006622558459641,pism_g450m_frontretreat_calfin_1972_2019.nc,2.1533103,3.2741566,0.61578345,0.014768672,7.5583644,42.694942,-388.27353,220.1922
118,643377.1096169949,seasonal_calving_id_1_1900_2025.nc,0.00014945717453956604,MAR3.9_CNRM-ESM2_ssp585_ocean_1960-2100_v4.nc,RACMO2.3p2_ERA5_FGRN055_1940_2023.nc,0.0002900691005587578,1.0902207960374652,0.3714940529782325,1.5006622558459641,pism_g450m_frontretreat_calfin_1972_2019.nc,2.2833707,3.3219912,0.5997534,0.01566997,9.507411,43.83223,-440.9541,238.22328
119,643377.1096169949,seasonal_calving_id_1_1900_2025.nc,0.00014945717453956604,MAR3.9_CNRM-ESM2_ssp585_ocean_1960-2100_v4.nc,RACMO2.3p2_ERA5_FGRN055_1940_2023.nc,0.0002900691005587578,1.0902207960374652,0.8124196554999799,1.566284354776144,pism_g450m_frontretreat_calfin_1972_2019.nc,2.297408,3.2826874,0.62932366,0.018212283,6.646955,41.97751,-468.6903,333.04007
120,643377.1096169949,seasonal_calving_id_1_1900_2025.nc,0.00014945717453956604,MAR3.9_CNRM-ESM2_ssp585_ocean_1960-2100_v4.nc,RACMO2.3p2_ERA5_FGRN055_1940_2023.nc,0.0002900691005587578,1.0902207960374652,0.8124196554999799,1.5006622558459641,pism_g450m_frontretreat_calfin_1972_2019.nc,2.7233949,3.307434,0.7452758,0.017963775,6.677633,44.7931,-413.6201,284.3885
121,643377.1096169949,seasonal_calving_id_1_1900_2025.nc,0.00012128692120313644,MAR3.9_MIROC-ESM-CHEM_rcp85_ocean_1960-2100_v4.nc,RACMO2.3p2_ERA5_FGRN055_1940_2023.nc,0.00024620619535446167,1.3642323330044746,0.3714940529782325,1.566284354776144,pism_g450m_frontretreat_calfin_1972_2019.nc,2.2593696,3.3001547,0.75629884,0.01945171,5.6828604,40.716232,-352.96622,260.191
122,608948.4306052327,seasonal_calving_id_1_1900_2025.nc,0.00012128692120313644,MAR3.9_MIROC-ESM-CHEM_rcp85_ocean_1960-2100_v4.nc,RACMO2.3p2_ERA5_FGRN055_1940_2023.nc,0.00024620619535446167,1.3642323330044746,0.3714940529782325,1.566284354776144,pism_g450m_frontretreat_calfin_1972_2019.nc,2.7752633,3.3279727,0.77093726,0.021772362,7.0448728,42.759525,-323.89655,249.16537
123,608948.4306052327,seasonal_calving_id_1_1900_2025.nc,0.00014945717453956604,MAR3.9_MIROC-ESM-CHEM_rcp85_ocean_1960-2100_v4.nc,RACMO2.3p2_ERA5_FGRN055_1940_2023.nc,0.00024620619535446167,1.3642323330044746,0.3714940529782325,1.566284354776144,pism_g450m_frontretreat_calfin_1972_2019.nc,2.593692,3.3089128,0.539088,0.019174065,5.911827,41.975296,-532.3627,199.57141
124,608948.4306052327,seasonal_calving_id_1_1900_2025.nc,0.00012128692120313644,MAR3.9_CNRM-ESM2_ssp585_ocean_1960-2100_v4.nc,RACMO2.3p2_ERA5_FGRN055_1940_2023.nc,0.00024620619535446167,1.3642323330044746,0.3714940529782325,1.566284354776144,pism_g450m_frontretreat_calfin_1972_2019.nc,2.234057,3.2734103,0.6222386,0.01692347,5.881397,44.69535,-428.17053,270.0367
125,608948.4306052327,seasonal_calving_id_1_1900_2025.nc,0.00012128692120313644,MAR3.9_MIROC-ESM-CHEM_rcp85_ocean_1960-2100_v4.nc,RACMO2.3p2_ERA5_FGRN055_1940_2023.nc,0.00024620619535446167,1.3642323330044746,0.3714940529782325,1.566284354776144,pism_g450m_frontretreat_calfin_1972_2019.nc,2.1295187,3.2964745,0.7334877,0.016521389,7.091053,41.000324,-435.99063,327.67654
126,608948.4306052327,seasonal_calving_id_1_1900_2025.nc,0.00012128692120313644,MAR3.9_MIROC-ESM-CHEM_rcp85_ocean_1960-2100_v4.nc,RACMO2.3p2_ERA5_FGRN055_1940_2023.nc,0.0002900691005587578,1.3642323330044746,0.3714940529782325,1.566284354776144,pism_g450m_frontretreat_calfin_1972_2019.nc,3.1910162,3.2798035,0.681615,0.02161852,6.3976903,42.033424,-355.58444,242.83391
127,608948.4306052327,seasonal_calving_id_1_1900_2025.nc,0.00012128692120313644,MAR3.9_MIROC-ESM-CHEM_rcp85_ocean_1960-2100_v4.nc,RACMO2.3p2_ERA5_FGRN055_1940_2023.nc,0.00024620619535446167,1.0902207960374652,0.3714940529782325,1.566284354776144,pism_g450m_frontretreat_calfin_1972_2019.nc,2.6989434,3.2795928,0.8355537,0.0142882755,7.02165,42.12938,-285.16617,85.79302
128,608948.4306052327,seasonal_calving_id_1_1900_2025.nc,0.00012128692120313644,MAR3.9_MIROC-ESM-CHEM_rcp85_ocean_1960-2100_v4.nc,RACMO2.3p2_ERA5_FGRN055_1940_2023.nc,0.00024620619535446167,1.3642323330044746,0.8124196554999799,1.566284354776144,pism_g450m_frontretreat_calfin_1972_2019.nc,2.186709,3.3475168,0.8437441,0.023401588,6.007526,40.850647,-261.6453,425.1077
129,608948.4306052327,seasonal_calving_id_1_1900_2025.nc,0.00012128692120313644,MAR3.9_MIROC-ESM-CHEM_rcp85_ocean_1960-2100_v4.nc,RACMO2.3p2_ERA5_FGRN055_1940_2023.nc,0.00024620619535446167,1.3642323330044746,0.3714940529782325,1.5006622558459641,pism_g450m_frontretreat_calfin_1972_2019.nc,2.5018094,3.2922974,0.6928033,0.018289797,7.6702323,44.194214,-520.7676,549.39636
130,608948.4306052327,seasonal_calving_id_1_1900_2025.nc,0.00012128692120313644,MAR3.9_MIROC-ESM-CHEM_rcp85_ocean_1960-2100_v4.nc,RACMO2.3p2_ERA5_FGRN055_1940_2023.nc,0.00024620619535446167,1.3642323330044746,0.3714940529782325,1.566284354776144,pism_g450m_frontretreat_calfin_1972_2019.nc,2.450532,3.2769408,0.74948907,0.016445791,5.6770554,42.968193,-402.47903,237.07207
131,608948.4306052327,seasonal_calving_id_1_1900_2025.nc,0.00012128692120313644,MAR3.9_MIROC-ESM-CHEM_rcp85_ocean_1960-2100_v4.nc,RACMO2.3p2_ERA5_FGRN055_1940_2023.nc,0.00024620619535446167,1.3642323330044746,0.3714940529782325,1.566284354776144,pism_g450m_frontretreat_calfin_1972_2019.nc,3.0509024,3.3133974,0.72904027,0.02458737,6.7910137,43.471375,-262.7194,396.40494
132,502113.1915040314,seasonal_calving_id_6_1900_2025.nc,9.203077694401144e-05,MAR3.9_NorESM1-M_rcp85_ocean_1960-2100_v4.nc,RACMO2.3p2_ERA5_FGRN055_1940_2023.nc,0.0002630693954229355,1.4358865357935429,0.6895985647570342,1.7144556365907193,pism_g450m_frontretreat_calfin_1972_2019.nc,2.9949658,3.3082075,0.70605564,0.01598514,5.8651924,44.06465,-445.4546,198.30653
133,558525.809366256,seasonal_calving_id_6_1900_2025.nc,9.203077694401144e-05,MAR3.9_NorESM1-M_rcp85_ocean_1960-2100_v4.nc,RACMO2.3p2_ERA5_FGRN055_1940_2023.nc,0.0002630693954229355,1.4358865357935429,0.6895985647570342,1.7144556365907193,pism_g450m_frontretreat_calfin_1972_2019.nc,2.7050111,3.3025186,0.6270035,0.02367346,10.795517,40.234104,-232.96985,271.63324
134,502113.1915040314,seasonal_calving_id_1_1900_2025.nc,9.203077694401144e-05,MAR3.9_NorESM1-M_rcp85_ocean_1960-2100_v4.nc,RACMO2.3p2_ERA5_FGRN055_1940_2023.nc,0.0002630693954229355,1.4358865357935429,0.6895985647570342,1.7144556365907193,pism_g450m_frontretreat_calfin_1972_2019.nc,3.198471,3.3227584,0.5227982,0.025050558,7.519788,42.505795,-370.63773,124.53915
135,502113.1915040314,seasonal_calving_id_6_1900_2025.nc,9.519537712913006e-05,MAR3.9_NorESM1-M_rcp85_ocean_1960-2100_v4.nc,RACMO2.3p2_ERA5_FGRN055_1940_2023.nc,0.0002630693954229355,1.4358865357935429,0.6895985647570342,1.7144556365907193,pism_g450m_frontretreat_calfin_1972_2019.nc,2.1644566,3.2746508,0.7877742,0.01756273,5.008267,41.822777,-253.23492,135.88809
136,502113.1915040314,seasonal_calving_id_6_1900_2025.nc,9.203077694401144e-05,MAR3.9_CNRM-CM6_ssp585_ocean_1960-2100_v4.nc,RACMO2.3p2_ERA5_FGRN055_1940_2023.nc,0.0002630693954229355,1.4358865357935429,0.6895985647570342,1.7144556365907193,pism_g450m_frontretreat_calfin_1972_2019.nc,2.4278643,3.3129272,0.81601423,0.021197043,6.6710396,40.331966,-259.60565,224.91954
137,502113.1915040314,seasonal_calving_id_6_1900_2025.nc,9.203077694401144e-05,MAR3.9_NorESM1-M_rcp85_ocean_1960-2100_v4.nc,MARv3.14-monthly-ERA5_1940_2023.nc,0.0002630693954229355,1.4358865357935429,0.6895985647570342,1.7144556365907193,pism_g450m_frontretreat_calfin_1972_2019.nc,2.8800027,3.2971997,0.82918155,0.01994327,6.5518074,43.908573,-351.3105,323.18042
138,502113.1915040314,seasonal_calving_id_6_1900_2025.nc,9.203077694401144e-05,MAR3.9_NorESM1-M_rcp85_ocean_1960-2100_v4.nc,RACMO2.3p2_ERA5_FGRN055_1940_2023.nc,0.00033686310198158026,1.4358865357935429,0.6895985647570342,1.7144556365907193,pism_g450m_frontretreat_calfin_1972_2019.nc,3.0206769,3.313049,0.5561628,0.017877402,8.064252,44.189236,-462.34625,209.97893
139,502113.1915040314,seasonal_calving_id_6_1900_2025.nc,9.203077694401144e-05,MAR3.9_NorESM1-M_rcp85_ocean_1960-2100_v4.nc,RACMO2.3p2_ERA5_FGRN055_1940_2023.nc,0.0002630693954229355,1.5471384575590492,0.6895985647570342,1.7144556365907193,pism_g450m_frontretreat_calfin_1972_2019.nc,2.9366472,3.3768356,0.61646396,0.025886472,7.210164,43.852936,-361.6282,278.99658
140,502113.1915040314,seasonal_calving_id_6_1900_2025.nc,9.203077694401144e-05,MAR3.9_NorESM1-M_rcp85_ocean_1960-2100_v4.nc,RACMO2.3p2_ERA5_FGRN055_1940_2023.nc,0.0002630693954229355,1.4358865357935429,0.743418011488393,1.7144556365907193,pism_g450m_frontretreat_calfin_1972_2019.nc,2.927594,3.3416939,0.7988762,0.018546624,9.573598,43.703064,-242.08514,58.59095
141,502113.1915040314,seasonal_calving_id_6_1900_2025.nc,9.203077694401144e-05,MAR3.9_NorESM1-M_rcp85_ocean_1960-2100_v4.nc,RACMO2.3p2_ERA5_FGRN055_1940_2023.nc,0.0002630693954229355,1.4358865357935429,0.6895985647570342,1.7184266652911901,pism_g450m_frontretreat_calfin_1972_2019.nc,2.4885726,3.3803022,0.72800606,0.015991163,8.23672,44.18058,-300.1702,119.35322
142,502113.1915040314,seasonal_calving_id_6_1900_2025.nc,9.203077694401144e-05,MAR3.9_NorESM1-M_rcp85_ocean_1960-2100_v4.nc,RACMO2.3p2_ERA5_FGRN055_1940_2023.nc,0.0002630693954229355,1.4358865357935429,0.6895985647570342,1.7144556365907193,,2.6689055,3.2638166,0.7530735,0.021887774,7.755354,41.019127,-332.3632,335.20618
143,502113.1915040314,seasonal_calving_id_1_1900_2025.nc,9.519537712913006e-05,MAR3.9_CNRM-CM6_ssp585_ocean_1960-2100_v4.nc,MARv3.14-monthly-ERA5_1940_2023.nc,0.00033686310198158026,1.5471384575590492,0.743418011488393,1.7184266652911901,,3.0736015,3.3174202,0.7160183,0.01892305,6.0715914,43.09775,-501.89655,301.44696
144,558525.809366256,seasonal_calving_id_6_1900_2025.nc,9.519537712913006e-05,MAR3.9_CNRM-CM6_ssp585_ocean_1960-2100_v4.nc,MARv3.14-monthly-ERA5_1940_2023.nc,0.00033686310198158026,1.5471384575590492,0.743418011488393,1.7184266652911901,,2.8074605,3.2775803,0.7055501,0.018747514,10.394781,40.38022,-264.23877,172.11589
145,558525.809366256,seasonal_calving_id_1_1900_2025.nc,9.203077694401144e-05,MAR3.9_CNRM-CM6_ssp585_ocean_1960-2100_v4.nc,MARv3.14-monthly-ERA5_1940_2023.nc,0.00033686310198158026,1.5471384575590492,0.743418011488393,1.7184266652911901,,3.3605876,3.3860765,0.71969265,0.023340356,7.4002237,44.032543,-368.1682,141.48433
146,558525.809366256,seasonal_calving_id_1_1900_2025.nc,9.519537712913006e-05,MAR3.9_NorESM1-M_rcp85_ocean_1960-2100_v4.nc,MARv3.14-monthly-ERA5_1940_2023.nc,0.00033686310198158026,1.5471384575590492,0.743418011488393,1.7184266652911901,,2.726511,3.331381,0.7843308,0.017850764,10.220584,40.487003,-341.76697,294.5215
147,558525.809366256,seasonal_calving_id_1_1900_2025.nc,9.519537712913006e-05,MAR3.9_CNRM-CM6_ssp585_ocean_1960-2100_v4.nc,RACMO2.3p2_ERA5_FGRN055_1940_2023.nc,0.00033686310198158026,1.5471384575590492,0.743418011488393,1.7184266652911901,,2.387177,3.279348,0.60405564,0.020226916,8.919124,40.762245,-396.21927,410.02313
148,558525.809366256,seasonal_calving_id_1_1900_2025.nc,9.519537712913006e-05,MAR3.9_CNRM-CM6_ssp585_ocean_1960-2100_v4.nc,MARv3.14-monthly-ERA5_1940_2023.nc,0.0002630693954229355,1.5471384575590492,0.743418011488393,1.7184266652911901,,2.5332625,3.2858984,0.5642475,0.017512899,8.390864,43.982727,-432.21423,161.8786
149,558525.809366256,seasonal_calving_id_1_1900_2025.nc,9.519537712913006e-05,MAR3.9_CNRM-CM6_ssp585_ocean_1960-2100_v4.nc,MARv3.14-monthly-ERA5_1940_2023.nc,0.00033686310198158026,1.4358865357935429,0.743418011488393,1.7184266652911901,,2.6092036,3.3051455,0.8604488,0.020782147,5.25487,41.924023,-457.9765,319.95645
150,558525.809366256,seasonal_calving_id_1_1900_2025.nc,9.519537712913006e-05,MAR3.9_CNRM-CM6_ssp585_ocean_1960-2100_v4.nc,MARv3.14-monthly-ERA5_1940_2023.nc,0.00033686310198158026,1.5471384575590492,0.6895985647570342,1.7184266652911901,,2.394855,3.3477223,0.7552337,0.013341115,6.9114327,43.624397,-658.0963,278.09705
151,558525.809366256,seasonal_calving_id_1_1900_2025.nc,9.519537712913006e-05,MAR3.9_CNRM-CM6_ssp585_ocean_1960-2100_v4.nc,MARv3.14-monthly-ERA5_1940_2023.nc,0.00033686310198158026,1.5471384575590492,0.743418011488393,1.7144556365907193,,2.7829287,3.3019152,0.7785187,0.020315243,9.162141,44.642242,-278.8302,294.6928
152,558525.809366256,seasonal_calving_id_1_1900_2025.nc,9.519537712913006e-05,MAR3.9_CNRM-CM6_ssp585_ocean_1960-2100_v4.nc,MARv3.14-monthly-ERA5_1940_2023.nc,0.00033686310198158026,1.5471384575590492,0.743418011488393,1.7184266652911901,pism_g450m_frontretreat_calfin_1972_2019.nc,2.6478977,3.3131504,0.7045923,0.018769028,10.429694,44.064594,-302.82993,252.70375
153,558525.809366256,seasonal_calving_id_1_1900_2025.nc,9.519537712913006e-05,MAR3.9_CNRM-CM6_ssp585_ocean_1960-2100_v4.nc,MARv3.14-monthly-ERA5_1940_2023.nc,0.00033686310198158026,1.5471384575590492,0.743418011488393,1.7184266652911901,,2.0311806,3.3049102,0.80515885,0.017628154,6.641595,42.31562,-369.8756,119.51798
154,452961.88704669476,seasonal_calving_id_2_1900_2025.nc,0.00013105718716979026,MAR3.9_CNRM-CM6_ssp585_ocean_1960-2100_v4.nc,MARv3.14-monthly-ERA5_1940_2023.nc,0.00031608280252665285,1.2615521129220724,0.3883775531779975,1.2947246429510415,,2.0573776,3.3011596,0.7758514,0.01774119,5.3009706,42.054295,-435.0498,216.70773
155,415704.688988626,seasonal_calving_id_2_1900_2025.nc,0.00013105718716979026,MAR3.9_CNRM-CM6_ssp585_ocean_1960-2100_v4.nc,MARv3.14-monthly-ERA5_1940_2023.nc,0.00031608280252665285,1.2615521129220724,0.3883775531779975,1.2947246429510415,,2.1123803,3.2708611,0.7205758,0.018220074,6.485615,41.810177,-430.9111,208.35913
156,452961.88704669476,seasonal_calving_id_3_1900_2025.nc,0.00013105718716979026,MAR3.9_CNRM-CM6_ssp585_ocean_1960-2100_v4.nc,MARv3.14-monthly-ERA5_1940_2023.nc,0.00031608280252665285,1.2615521129220724,0.3883775531779975,1.2947246429510415,,2.7345212,3.312798,0.8231329,0.018068934,7.2368436,43.94593,-350.4362,272.482
157,452961.88704669476,seasonal_calving_id_2_1900_2025.nc,0.0001401407799683511,MAR3.9_CNRM-CM6_ssp585_ocean_1960-2100_v4.nc,MARv3.14-monthly-ERA5_1940_2023.nc,0.00031608280252665285,1.2615521129220724,0.3883775531779975,1.2947246429510415,,2.3018525,3.277652,0.6670836,0.01734578,5.8891244,42.152267,-445.26575,270.163
158,452961.88704669476,seasonal_calving_id_2_1900_2025.nc,0.00013105718716979026,MAR3.9_UKESM1-CM6_ssp585_ocean_1960-2100_v4.nc,MARv3.14-monthly-ERA5_1940_2023.nc,0.00031608280252665285,1.2615521129220724,0.3883775531779975,1.2947246429510415,,2.7182004,3.3397954,0.8028162,0.022140943,7.268352,43.655148,-430.3389,482.0856
159,452961.88704669476,seasonal_calving_id_2_1900_2025.nc,0.00013105718716979026,MAR3.9_CNRM-CM6_ssp585_ocean_1960-2100_v4.nc,HIRHAM5-monthly-ERA5_1975_2021.nc,0.00031608280252665285,1.2615521129220724,0.3883775531779975,1.2947246429510415,,2.8465207,3.305173,0.8498671,0.021262214,6.1210833,44.279224,-333.62582,227.30293
160,452961.88704669476,seasonal_calving_id_2_1900_2025.nc,0.00013105718716979026,MAR3.9_CNRM-CM6_ssp585_ocean_1960-2100_v4.nc,MARv3.14-monthly-ERA5_1940_2023.nc,0.0002853414395079017,1.2615521129220724,0.3883775531779975,1.2947246429510415,,2.348985,3.3055425,0.8069964,0.016120316,8.8329525,44.45314,-406.51578,342.77155
161,452961.88704669476,seasonal_calving_id_2_1900_2025.nc,0.00013105718716979026,MAR3.9_CNRM-CM6_ssp585_ocean_1960-2100_v4.nc,MARv3.14-monthly-ERA5_1940_2023.nc,0.00031608280252665285,1.1446784876286984,0.3883775531779975,1.2947246429510415,,2.3808594,3.264533,0.6187709,0.016957007,7.1700134,43.611767,-468.82404,391.51303
162,452961.88704669476,seasonal_calving_id_2_1900_2025.nc,0.00013105718716979026,MAR3.9_CNRM-CM6_ssp585_ocean_1960-2100_v4.nc,MARv3.14-monthly-ERA5_1940_2023.nc,0.00031608280252665285,1.2615521129220724,0.5236681657377631,1.2947246429510415,,2.4696376,3.3576152,0.8349378,0.016009053,5.8193054,42.30918,-477.71982,279.6405
163,452961.88704669476,seasonal_calving_id_2_1900_2025.nc,0.00013105718716979026,MAR3.9_CNRM-CM6_ssp585_ocean_1960-2100_v4.nc,MARv3.14-monthly-ERA5_1940_2023.nc,0.00031608280252665285,1.2615521129220724,0.3883775531779975,1.412870090082288,,2.3105807,3.2375321,0.8349526,0.016950577,8.098763,40.351364,-176.8557,139.80225
164,452961.88704669476,seasonal_calving_id_2_1900_2025.nc,0.00013105718716979026,MAR3.9_CNRM-CM6_ssp585_ocean_1960-2100_v4.nc,MARv3.14-monthly-ERA5_1940_2023.nc,0.00031608280252665285,1.2615521129220724,0.3883775531779975,1.2947246429510415,pism_g450m_frontretreat_calfin_1972_2019.nc,2.5294642,3.336411,0.7737341,0.014235233,6.3332167,43.82016,-494.79062,252.85706
165,452961.88704669476,seasonal_calving_id_3_1900_2025.nc,0.0001401407799683511,MAR3.9_UKESM1-CM6_ssp585_ocean_1960-2100_v4.nc,HIRHAM5-monthly-ERA5_1975_2021.nc,0.0002853414395079017,1.1446784876286984,0.5236681657377631,1.412870090082288,pism_g450m_frontretreat_calfin_1972_2019.nc,2.2216754,3.2669065,0.8093969,0.02116856,6.5066714,41.37233,-253.57965,306.37225
166,415704.688988626,seasonal_calving_id_2_1900_2025.nc,0.0001401407799683511,MAR3.9_UKESM1-CM6_ssp585_ocean_1960-2100_v4.nc,HIRHAM5-monthly-ERA5_1975_2021.nc,0.0002853414395079017,1.1446784876286984,0.5236681657377631,1.412870090082288,pism_g450m_frontretreat_calfin_1972_2019.nc,2.6552632,3.3209987,0.8585158,0.020087315,8.340609,43.173615,-302.30276,182.89772
167,415704.688988626,seasonal_calving_id_3_1900_2025.nc,0.00013105718716979026,MAR3.9_UKESM1-CM6_ssp585_ocean_1960-2100_v4.nc,HIRHAM5-monthly-ERA5_1975_2021.nc,0.0002853414395079017,1.1446784876286984,0.5236681657377631,1.412870090082288,pism_g450m_frontretreat_calfin_1972_2019.nc,2.0943825,3.3194618,0.53330314,0.021558074,9.584669,42.237118,-508.52518,511.51013
168,415704.688988626,seasonal_calving_id_3_1900_2025.nc,0.0001401407799683511,MAR3.9_CNRM-CM6_ssp585_ocean_1960-2100_v4.nc,HIRHAM5-monthly-ERA5_1975_2021.nc,0.0002853414395079017,1.1446784876286984,0.5236681657377631,1.412870090082288,pism_g450m_frontretreat_calfin_1972_2019.nc,2.6887984,3.2421894,0.7890728,0.017466454,6.1561456,42.32423,-335.53064,210.15198
169,415704.688988626,seasonal_calving_id_3_1900_2025.nc,0.0001401407799683511,MAR3.9_UKESM1-CM6_ssp585_ocean_1960-2100_v4.nc,MARv3.14-monthly-ERA5_1940_2023.nc,0.0002853414395079017,1.1446784876286984,0.5236681657377631,1.412870090082288,pism_g450m_frontretreat_calfin_1972_2019.nc,2.2522066,3.2446954,0.82322687,0.014412588,5.9234743,44.365723,-362.729,288.82733
170,415704.688988626,seasonal_calving_id_3_1900_2025.nc,0.0001401407799683511,MAR3.9_UKESM1-CM6_ssp585_ocean_1960-2100_v4.nc,HIRHAM5-monthly-ERA5_1975_2021.nc,0.00031608280252665285,1.1446784876286984,0.5236681657377631,1.412870090082288,pism_g450m_frontretreat_calfin_1972_2019.nc,3.0234663,3.3589177,0.7016637,0.019667808,6.0374155,40.73675,-367.04526,134.74261
171,415704.688988626,seasonal_calving_id_3_1900_2025.nc,0.0001401407799683511,MAR3.9_UKESM1-CM6_ssp585_ocean_1960-2100_v4.nc,HIRHAM5-monthly-ERA5_1975_2021.nc,0.0002853414395079017,1.2615521129220724,0.5236681657377631,1.412870090082288,pism_g450m_frontretreat_calfin_1972_2019.nc,2.1812484,3.3853214,0.8352364,0.017394695,7.101399,43.146782,-404.51224,113.26452
172,415704.688988626,seasonal_calving_id_3_1900_2025.nc,0.0001401407799683511,MAR3.9_UKESM1-CM6_ssp585_ocean_1960-2100_v4.nc,HIRHAM5-monthly-ERA5_1975_2021.nc,0.0002853414395079017,1.1446784876286984,0.3883775531779975,1.412870090082288,pism_g450m_frontretreat_calfin_1972_2019.nc,2.6683643,3.3467145,0.8410817,0.014718379,8.534227,44.174397,-355.22623,173.58592
173,415704.688988626,seasonal_calving_id_3_1900_2025.nc,0.0001401407799683511,MAR3.9_UKESM1-CM6_ssp585_ocean_1960-2100_v4.nc,HIRHAM5-monthly-ERA5_1975_2021.nc,0.0002853414395079017,1.1446784876286984,0.5236681657377631,1.2947246429510415,pism_g450m_frontretreat_calfin_1972_2019.nc,2.7737634,3.3275485,0.6796372,0.019014021,5.2842155,40.747707,-535.94116,308.1435
174,415704.688988626,seasonal_calving_id_3_1900_2025.nc,0.0001401407799683511,MAR3.9_UKESM1-CM6_ssp585_ocean_1960-2100_v4.nc,HIRHAM5-monthly-ERA5_1975_2021.nc,0.0002853414395079017,1.1446784876286984,0.5236681657377631,1.412870090082288,,2.2094452,3.2852917,0.77050644,0.018366205,8.430094,40.38677,-313.95566,197.79837
175,415704.688988626,seasonal_calving_id_3_1900_2025.nc,0.0001401407799683511,MAR3.9_UKESM1-CM6_ssp585_ocean_1960-2100_v4.nc,HIRHAM5-monthly-ERA5_1975_2021.nc,0.0002853414395079017,1.1446784876286984,0.5236681657377631,1.412870090082288,pism_g450m_frontretreat_calfin_1972_2019.nc,2.240536,3.367486,0.77044386,0.017258998,6.9511957,44.30671,-566.8025,439.00266
176,429613.98735642433,seasonal_calving_id_3_1900_2025.nc,8.702044724486768e-05,MAR3.9_CSIRO-Mk3.6_rcp85_ocean_1960-2100_v4.nc,RACMO2.3p2_ERA5_FGRN055_1940_2023.nc,0.0003088323156908155,1.6626453106291592,0.5255619939416647,1.2015291296876969,pism_g450m_frontretreat_calfin_1972_2019.nc,2.7647982,3.336912,0.74645436,0.021395838,6.7326403,42.9743,-317.25494,511.96774
177,388906.4274728298,seasonal_calving_id_3_1900_2025.nc,8.702044724486768e-05,MAR3.9_CSIRO-Mk3.6_rcp85_ocean_1960-2100_v4.nc,RACMO2.3p2_ERA5_FGRN055_1940_2023.nc,0.0003088323156908155,1.6626453106291592,0.5255619939416647,1.2015291296876969,pism_g450m_frontretreat_calfin_1972_2019.nc,2.3081913,3.275392,0.7882449,0.014156391,11.267611,44.704826,-209.54613,127.97239
178,429613.98735642433,seasonal_calving_id_5_1900_2025.nc,8.702044724486768e-05,MAR3.9_CSIRO-Mk3.6_rcp85_ocean_1960-2100_v4.nc,RACMO2.3p2_ERA5_FGRN055_1940_2023.nc,0.0003088323156908155,1.6626453106291592,0.5255619939416647,1.2015291296876969,pism_g450m_frontretreat_calfin_1972_2019.nc,2.8618248,3.2384315,0.75868565,0.01924755,6.1594954,42.18231,-280.17087,180.91539
179,429613.98735642433,seasonal_calving_id_3_1900_2025.nc,0.00011310411093290894,MAR3.9_CSIRO-Mk3.6_rcp85_ocean_1960-2100_v4.nc,RACMO2.3p2_ERA5_FGRN055_1940_2023.nc,0.0003088323156908155,1.6626453106291592,0.5255619939416647,1.2015291296876969,pism_g450m_frontretreat_calfin_1972_2019.nc,2.190778,3.2764504,0.638275,0.015341813,6.9777207,44.11122,-425.33508,210.15982
180,429613.98735642433,seasonal_calving_id_3_1900_2025.nc,8.702044724486768e-05,MAR3.9_CNRM-CM6_ssp126_ocean_1960-2100_v4.nc,RACMO2.3p2_ERA5_FGRN055_1940_2023.nc,0.0003088323156908155,1.6626453106291592,0.5255619939416647,1.2015291296876969,pism_g450m_frontretreat_calfin_1972_2019.nc,2.8442638,3.282932,0.7297672,0.01562436,7.4685907,43.57003,-406.63367,119.2447
181,429613.98735642433,seasonal_calving_id_3_1900_2025.nc,8.702044724486768e-05,MAR3.9_CSIRO-Mk3.6_rcp85_ocean_1960-2100_v4.nc,RACMO2.3p2_ERA5_FGRN055_1940_2023.nc,0.0003088323156908155,1.6626453106291592,0.5255619939416647,1.2015291296876969,pism_g450m_frontretreat_calfin_1972_2019.nc,2.6909618,3.329262,0.6646232,0.023652585,7.47873,40.18399,-271.79813,216.94267
182,429613.98735642433,seasonal_calving_id_3_1900_2025.nc,8.702044724486768e-05,MAR3.9_CSIRO-Mk3.6_rcp85_ocean_1960-2100_v4.nc,RACMO2.3p2_ERA5_FGRN055_1940_2023.nc,0.00032658172465860845,1.6626453106291592,0.5255619939416647,1.2015291296876969,pism_g450m_frontretreat_calfin_1972_2019.nc,2.3431919,3.313923,0.74574214,0.017496003,7.0341496,42.14908,-369.12585,274.03616
183,429613.98735642433,seasonal_calving_id_3_1900_2025.nc,8.702044724486768e-05,MAR3.9_CSIRO-Mk3.6_rcp85_ocean_1960-2100_v4.nc,RACMO2.3p2_ERA5_FGRN055_1940_2023.nc,0.0003088323156908155,1.4972256334498524,0.5255619939416647,1.2015291296876969,pism_g450m_frontretreat_calfin_1972_2019.nc,2.0974307,3.2628527,0.5319544,0.018746918,8.527133,41.89964,-325.00867,204.48936
184,429613.98735642433,seasonal_calving_id_3_1900_2025.nc,8.702044724486768e-05,MAR3.9_CSIRO-Mk3.6_rcp85_ocean_1960-2100_v4.nc,RACMO2.3p2_ERA5_FGRN055_1940_2023.nc,0.0003088323156908155,1.6626453106291592,0.6836121849715711,1.2015291296876969,pism_g450m_frontretreat_calfin_1972_2019.nc,3.0604231,3.2798173,0.7695101,0.02538499,6.7234426,42.501816,-221.52216,445.83777
185,429613.98735642433,seasonal_calving_id_3_1900_2025.nc,8.702044724486768e-05,MAR3.9_CSIRO-Mk3.6_rcp85_ocean_1960-2100_v4.nc,RACMO2.3p2_ERA5_FGRN055_1940_2023.nc,0.0003088323156908155,1.6626453106291592,0.5255619939416647,1.2037494181655348,pism_g450m_frontretreat_calfin_1972_2019.nc,2.4542365,3.3250408,0.7242669,0.019295063,5.7554235,40.130913,-404.43726,172.24304
186,429613.98735642433,seasonal_calving_id_3_1900_2025.nc,8.702044724486768e-05,MAR3.9_CSIRO-Mk3.6_rcp85_ocean_1960-2100_v4.nc,RACMO2.3p2_ERA5_FGRN055_1940_2023.nc,0.0003088323156908155,1.6626453106291592,0.5255619939416647,1.2015291296876969,,2.5426488,3.2995162,0.7732454,0.025580745,5.9436393,40.668358,-198.91823,131.02066
187,429613.98735642433,seasonal_calving_id_5_1900_2025.nc,0.00011310411093290894,MAR3.9_CNRM-CM6_ssp126_ocean_1960-2100_v4.nc,RACMO2.3p2_ERA5_FGRN055_1940_2023.nc,0.00032658172465860845,1.4972256334498524,0.6836121849715711,1.2037494181655348,,2.728414,3.2934155,0.6996861,0.02417613,7.005454,41.189625,-406.126,616.4512
188,388906.4274728298,seasonal_calving_id_3_1900_2025.nc,0.00011310411093290894,MAR3.9_CNRM-CM6_ssp126_ocean_1960-2100_v4.nc,RACMO2.3p2_ERA5_FGRN055_1940_2023.nc,0.00032658172465860845,1.4972256334498524,0.6836121849715711,1.2037494181655348,,2.9703836,3.2747245,0.8683602,0.017361384,7.735431,43.51894,-211.0647,153.70784
189,388906.4274728298,seasonal_calving_id_5_1900_2025.nc,8.702044724486768e-05,MAR3.9_CNRM-CM6_ssp126_ocean_1960-2100_v4.nc,RACMO2.3p2_ERA5_FGRN055_1940_2023.nc,0.00032658172465860845,1.4972256334498524,0.6836121849715711,1.2037494181655348,,2.9062495,3.2940223,0.60649294,0.017465096,7.0526404,44.053997,-443.2564,171.55383
190,388906.4274728298,seasonal_calving_id_5_1900_2025.nc,0.00011310411093290894,MAR3.9_CSIRO-Mk3.6_rcp85_ocean_1960-2100_v4.nc,RACMO2.3p2_ERA5_FGRN055_1940_2023.nc,0.00032658172465860845,1.4972256334498524,0.6836121849715711,1.2037494181655348,,2.1341686,3.3397915,0.6630328,0.01667861,6.5756655,42.989616,-480.3333,267.05948
191,388906.4274728298,seasonal_calving_id_5_1900_2025.nc,0.00011310411093290894,MAR3.9_CNRM-CM6_ssp126_ocean_1960-2100_v4.nc,RACMO2.3p2_ERA5_FGRN055_1940_2023.nc,0.00032658172465860845,1.4972256334498524,0.6836121849715711,1.2037494181655348,,2.8841937,3.3273697,0.8424713,0.022129774,11.020955,44.058006,-215.04764,312.7198
192,388906.4274728298,seasonal_calving_id_5_1900_2025.nc,0.00011310411093290894,MAR3.9_CNRM-CM6_ssp126_ocean_1960-2100_v4.nc,RACMO2.3p2_ERA5_FGRN055_1940_2023.nc,0.0003088323156908155,1.4972256334498524,0.6836121849715711,1.2037494181655348,,3.0859935,3.3109217,0.6857766,0.021955643,7.4794955,40.153824,-358.14114,185.06181
193,388906.4274728298,seasonal_calving_id_5_1900_2025.nc,0.00011310411093290894,MAR3.9_CNRM-CM6_ssp126_ocean_1960-2100_v4.nc,RACMO2.3p2_ERA5_FGRN055_1940_2023.nc,0.00032658172465860845,1.6626453106291592,0.6836121849715711,1.2037494181655348,,2.435674,3.31983,0.5831018,0.016046148,6.949535,44.88442,-525.96497,315.9807
194,388906.4274728298,seasonal_calving_id_5_1900_2025.nc,0.00011310411093290894,MAR3.9_CNRM-CM6_ssp126_ocean_1960-2100_v4.nc,RACMO2.3p2_ERA5_FGRN055_1940_2023.nc,0.00032658172465860845,1.4972256334498524,0.5255619939416647,1.2037494181655348,,2.7223368,3.350701,0.7908707,0.019817667,8.067649,40.08507,-392.08743,166.84648
195,388906.4274728298,seasonal_calving_id_5_1900_2025.nc,0.00011310411093290894,MAR3.9_CNRM-CM6_ssp126_ocean_1960-2100_v4.nc,RACMO2.3p2_ERA5_FGRN055_1940_2023.nc,0.00032658172465860845,1.4972256334498524,0.6836121849715711,1.2015291296876969,,2.8334048,3.248112,0.7447486,0.021377407,10.205812,43.158592,-217.78294,350.20816
196,388906.4274728298,seasonal_calving_id_5_1900_2025.nc,0.00011310411093290894,MAR3.9_CNRM-CM6_ssp126_ocean_1960-2100_v4.nc,RACMO2.3p2_ERA5_FGRN055_1940_2023.nc,0.00032658172465860845,1.4972256334498524,0.6836121849715711,1.2037494181655348,pism_g450m_frontretreat_calfin_1972_2019.nc,2.3235319,3.2538865,0.71775246,0.01814182,7.302438,40.74973,-535.75635,544.6676
197,388906.4274728298,seasonal_calving_id_5_1900_2025.nc,0.00011310411093290894,MAR3.9_CNRM-CM6_ssp126_ocean_1960-2100_v4.nc,RACMO2.3p2_ERA5_FGRN055_1940_2023.nc,0.00032658172465860845,1.4972256334498524,0.6836121849715711,1.2037494181655348,,2.2674642,3.3468306,0.8336691,0.013697203,7.238857,43.927162,-286.34586,94.13447
198,525772.3235525191,seasonal_calving_id_0_1900_2025.nc,0.0001255206421483308,MAR3.9_MIROC-ESM-CHEM_rcp26_ocean_1960-2100_v4.nc,MARv3.14-monthly-ERA5_1940_2023.nc,0.00024078771628439428,1.1383536227978766,0.8253663729876279,1.457186107710004,,2.3062785,3.2934194,0.8348308,0.01564685,6.6001725,43.28409,-261.36755,121.68263
199,547843.1313298643,seasonal_calving_id_0_1900_2025.nc,0.0001255206421483308,MAR3.9_MIROC-ESM-CHEM_rcp26_ocean_1960-2100_v4.nc,MARv3.14-monthly-ERA5_1940_2023.nc,0.00024078771628439428,1.1383536227978766,0.8253663729876279,1.457186107710004,,2.5053914,3.2931898,0.79798627,0.01864228,6.038669,41.823555,-395.98068,380.80328
200,525772.3235525191,seasonal_calving_id_0_1900_2025.nc,0.0001255206421483308,MAR3.9_MIROC-ESM-CHEM_rcp26_ocean_1960-2100_v4.nc,MARv3.14-monthly-ERA5_1940_2023.nc,0.00024078771628439428,1.1383536227978766,0.8253663729876279,1.457186107710004,,2.483581,3.3095121,0.6636139,0.01733176,6.761843,43.59294,-413.94556,194.09402
201,525772.3235525191,seasonal_calving_id_0_1900_2025.nc,8.224410060793161e-05,MAR3.9_MIROC-ESM-CHEM_rcp26_ocean_1960-2100_v4.nc,MARv3.14-monthly-ERA5_1940_2023.nc,0.00024078771628439428,1.1383536227978766,0.8253663729876279,1.457186107710004,,2.4328856,3.2755163,0.6647598,0.020559788,8.814841,41.100037,-256.73328,215.12083
202,525772.3235525191,seasonal_calving_id_0_1900_2025.nc,0.0001255206421483308,MAR3.9_NorESM1-M_rcp85_ocean_1960-2100_v4.nc,MARv3.14-monthly-ERA5_1940_2023.nc,0.00024078771628439428,1.1383536227978766,0.8253663729876279,1.457186107710004,,2.468439,3.295438,0.75755906,0.022047965,6.622649,41.055023,-322.81528,449.26962
203,525772.3235525191,seasonal_calving_id_0_1900_2025.nc,0.0001255206421483308,MAR3.9_MIROC-ESM-CHEM_rcp26_ocean_1960-2100_v4.nc,HIRHAM5-monthly-ERA5_1975_2021.nc,0.00024078771628439428,1.1383536227978766,0.8253663729876279,1.457186107710004,,3.094759,3.3490515,0.9353774,0.018821813,6.516595,43.501995,-381.42603,70.37142
204,525772.3235525191,seasonal_calving_id_0_1900_2025.nc,0.0001255206421483308,MAR3.9_MIROC-ESM-CHEM_rcp26_ocean_1960-2100_v4.nc,MARv3.14-monthly-ERA5_1940_2023.nc,0.0002506264827400446,1.1383536227978766,0.8253663729876279,1.457186107710004,,2.9961593,3.285921,0.66323215,0.018442746,9.500675,42.862038,-558.6535,287.92114
205,525772.3235525191,seasonal_calving_id_0_1900_2025.nc,0.0001255206421483308,MAR3.9_MIROC-ESM-CHEM_rcp26_ocean_1960-2100_v4.nc,MARv3.14-monthly-ERA5_1940_2023.nc,0.00024078771628439428,1.200017425790429,0.8253663729876279,1.457186107710004,,2.875483,3.2810721,0.5484097,0.018363653,7.09501,44.11953,-637.02185,408.89304
206,525772.3235525191,seasonal_calving_id_0_1900_2025.nc,0.0001255206421483308,MAR3.9_MIROC-ESM-CHEM_rcp26_ocean_1960-2100_v4.nc,MARv3.14-monthly-ERA5_1940_2023.nc,0.00024078771628439428,1.1383536227978766,0.34500581081956627,1.457186107710004,,2.5316489,3.341492,0.78373355,0.01751598,9.854262,41.905983,-377.06747,165.16034
207,525772.3235525191,seasonal_calving_id_0_1900_2025.nc,0.0001255206421483308,MAR3.9_MIROC-ESM-CHEM_rcp26_ocean_1960-2100_v4.nc,MARv3.14-monthly-ERA5_1940_2023.nc,0.00024078771628439428,1.1383536227978766,0.8253663729876279,1.5968046165071428,,2.687248,3.2053745,0.74369365,0.020728484,6.2752004,43.761757,-352.55792,210.09335
208,525772.3235525191,seasonal_calving_id_0_1900_2025.nc,0.0001255206421483308,MAR3.9_MIROC-ESM-CHEM_rcp26_ocean_1960-2100_v4.nc,MARv3.14-monthly-ERA5_1940_2023.nc,0.00024078771628439428,1.1383536227978766,0.8253663729876279,1.457186107710004,pism_g450m_frontretreat_calfin_1972_2019.nc,2.8036745,3.2627845,0.6313889,0.016466938,7.0299425,44.311813,-323.7457,78.809685
209,525772.3235525191,seasonal_calving_id_0_1900_2025.nc,8.224410060793161e-05,MAR3.9_NorESM1-M_rcp85_ocean_1960-2100_v4.nc,HIRHAM5-monthly-ERA5_1975_2021.nc,0.0002506264827400446,1.200017425790429,0.34500581081956627,1.5968046165071428,pism_g450m_frontretreat_calfin_1972_2019.nc,2.3689878,3.3100543,0.8867714,0.014683221,6.841505,44.12059,-390.8916,188.73958
210,547843.1313298643,seasonal_calving_id_0_1900_2025.nc,8.224410060793161e-05,MAR3.9_NorESM1-M_rcp85_ocean_1960-2100_v4.nc,HIRHAM5-monthly-ERA5_1975_2021.nc,0.0002506264827400446,1.200017425790429,0.34500581081956627,1.5968046165071428,pism_g450m_frontretreat_calfin_1972_2019.nc,2.8833623,3.335181,0.8464923,0.022611925,6.021483,43.38737,-330.74213,459.64764
211,547843.1313298643,seasonal_calving_id_0_1900_2025.nc,0.0001255206421483308,MAR3.9_NorESM1-M_rcp85_ocean_1960-2100_v4.nc,HIRHAM5-monthly-ERA5_1975_2021.nc,0.0002506264827400446,1.200017425790429,0.34500581081956627,1.5968046165071428,pism_g450m_frontretreat_calfin_1972_2019.nc,2.416643,3.327671,0.7328024,0.015260805,10.475165,43.637745,-440.0977,208.09993
212,547843.1313298643,seasonal_calving_id_0_1900_2025.nc,8.224410060793161e-05,MAR3.9_MIROC-ESM-CHEM_rcp26_ocean_1960-2100_v4.nc,HIRHAM5-monthly-ERA5_1975_2021.nc,0.0002506264827400446,1.200017425790429,0.34500581081956627,1.5968046165071428,pism_g450m_frontretreat_calfin_1972_2019.nc,2.9217074,3.3366647,0.5297044,0.021762695,8.302631,42.891827,-449.69727,234.02899
213,547843.1313298643,seasonal_calving_id_0_1900_2025.nc,8.224410060793161e-05,MAR3.9_NorESM1-M_rcp85_ocean_1960-2100_v4.nc,MARv3.14-monthly-ERA5_1940_2023.nc,0.0002506264827400446,1.200017425790429,0.34500581081956627,1.5968046165071428,pism_g450m_frontretreat_calfin_1972_2019.nc,2.8374612,3.2830188,0.8445514,0.02671281,6.363218,43.41277,-201.83548,253.6387
214,547843.1313298643,seasonal_calving_id_0_1900_2025.nc,8.224410060793161e-05,MAR3.9_NorESM1-M_rcp85_ocean_1960-2100_v4.nc,HIRHAM5-monthly-ERA5_1975_2021.nc,0.00024078771628439428,1.200017425790429,0.34500581081956627,1.5968046165071428,pism_g450m_frontretreat_calfin_1972_2019.nc,2.6306744,3.349685,0.6646432,0.020509735,7.025142,44.76289,-613.83765,579.6724
215,547843.1313298643,seasonal_calving_id_0_1900_2025.nc,8.224410060793161e-05,MAR3.9_NorESM1-M_rcp85_ocean_1960-2100_v4.nc,HIRHAM5-monthly-ERA5_1975_2021.nc,0.0002506264827400446,1.1383536227978766,0.34500581081956627,1.5968046165071428,pism_g450m_frontretreat_calfin_1972_2019.nc,2.2127023,3.2728796,0.6109757,0.016434914,6.8367534,43.189526,-475.8746,240.3788
216,547843.1313298643,seasonal_calving_id_0_1900_2025.nc,8.224410060793161e-05,MAR3.9_NorESM1-M_rcp85_ocean_1960-2100_v4.nc,HIRHAM5-monthly-ERA5_1975_2021.nc,0.0002506264827400446,1.200017425790429,0.8253663729876279,1.5968046165071428,pism_g450m_frontretreat_calfin_1972_2019.nc,2.4241774,3.2742438,0.6363777,0.016471466,9.830216,43.720695,-461.59256,281.12256
217,547843.1313298643,seasonal_calving_id_0_1900_2025.nc,8.224410060793161e-05,MAR3.9_NorESM1-M_rcp85_ocean_1960-2100_v4.nc,HIRHAM5-monthly-ERA5_1975_2021.nc,0.0002506264827400446,1.200017425790429,0.34500581081956627,1.457186107710004,pism_g450m_frontretreat_calfin_1972_2019.nc,2.0846598,3.3448381,0.8096454,0.012262119,7.4231005,43.63333,-430.7959,75.25893
218,547843.1313298643,seasonal_calving_id_0_1900_2025.nc,8.224410060793161e-05,MAR3.9_NorESM1-M_rcp85_ocean_1960-2100_v4.nc,HIRHAM5-monthly-ERA5_1975_2021.nc,0.0002506264827400446,1.200017425790429,0.34500581081956627,1.5968046165071428,,2.3183277,3.3386056,0.81809723,0.01868801,6.7751937,44.48209,-367.69202,175.40672
219,547843.1313298643,seasonal_calving_id_0_1900_2025.nc,8.224410060793161e-05,MAR3.9_NorESM1-M_rcp85_ocean_1960-2100_v4.nc,HIRHAM5-monthly-ERA5_1975_2021.nc,0.0002506264827400446,1.200017425790429,0.34500581081956627,1.5968046165071428,pism_g450m_frontretreat_calfin_1972_2019.nc,2.3770335,3.3372529,0.84375286,0.016884457,6.1831307,43.721016,-459.69293,185.72826
220,629394.2656368017,seasonal_calving_id_5_1900_2025.nc,0.00010560325398109852,MAR3.9_CNRM-CM6_ssp126_ocean_1960-2100_v4.nc,HIRHAM5-monthly-ERA5_1975_2021.nc,0.00028232049711048604,1.3857099425047636,0.6767615981400013,1.757798525877297,,2.1155646,3.3131034,0.75015163,0.015313789,8.228785,40.771416,-309.29285,195.96198
221,581859.3103438616,seasonal_calving_id_5_1900_2025.nc,0.00010560325398109852,MAR3.9_CNRM-CM6_ssp126_ocean_1960-2100_v4.nc,HIRHAM5-monthly-ERA5_1975_2021.nc,0.00028232049711048604,1.3857099425047636,0.6767615981400013,1.757798525877297,,2.9049335,3.3624141,0.7937048,0.02250662,5.41793,42.483475,-358.1529,387.24435
222,629394.2656368017,seasonal_calving_id_3_1900_2025.nc,0.00010560325398109852,MAR3.9_CNRM-CM6_ssp126_ocean_1960-2100_v4.nc,HIRHAM5-monthly-ERA5_1975_2021.nc,0.00028232049711048604,1.3857099425047636,0.6767615981400013,1.757798525877297,,2.3311288,3.3384953,0.737979,0.013647932,9.96664,42.708126,-356.00098,133.126
223,629394.2656368017,seasonal_calving_id_5_1900_2025.nc,0.00013173652372788636,MAR3.9_CNRM-CM6_ssp126_ocean_1960-2100_v4.nc,HIRHAM5-monthly-ERA5_1975_2021.nc,0.00028232049711048604,1.3857099425047636,0.6767615981400013,1.757798525877297,,2.7119958,3.3189335,0.6520336,0.025299788,8.825893,40.832794,-341.6498,476.71188
224,629394.2656368017,seasonal_calving_id_5_1900_2025.nc,0.00010560325398109852,MAR3.9_CSIRO-Mk3.6_rcp85_ocean_1960-2100_v4.nc,HIRHAM5-monthly-ERA5_1975_2021.nc,0.00028232049711048604,1.3857099425047636,0.6767615981400013,1.757798525877297,,2.9240081,3.355729,0.59893435,0.022907082,8.34062,43.242973,-313.60532,230.75504
225,629394.2656368017,seasonal_calving_id_5_1900_2025.nc,0.00010560325398109852,MAR3.9_CNRM-CM6_ssp126_ocean_1960-2100_v4.nc,MARv3.14-monthly-ERA5_1940_2023.nc,0.00028232049711048604,1.3857099425047636,0.6767615981400013,1.757798525877297,,2.6592598,3.2383592,0.6019353,0.019328246,6.13931,44.436577,-511.3589,501.21478
226,629394.2656368017,seasonal_calving_id_5_1900_2025.nc,0.00010560325398109852,MAR3.9_CNRM-CM6_ssp126_ocean_1960-2100_v4.nc,HIRHAM5-monthly-ERA5_1975_2021.nc,0.00033993573043495414,1.3857099425047636,0.6767615981400013,1.757798525877297,,2.3911283,3.349832,0.90101767,0.015242247,7.1120315,43.124256,-293.92642,166.89064
227,629394.2656368017,seasonal_calving_id_5_1900_2025.nc,0.00010560325398109852,MAR3.9_CNRM-CM6_ssp126_ocean_1960-2100_v4.nc,HIRHAM5-monthly-ERA5_1975_2021.nc,0.00028232049711048604,1.0110537135973572,0.6767615981400013,1.757798525877297,,2.5427792,3.367094,0.81073385,0.01800394,8.468815,40.739685,-404.23898,376.0008
228,629394.2656368017,seasonal_calving_id_5_1900_2025.nc,0.00010560325398109852,MAR3.9_CNRM-CM6_ssp126_ocean_1960-2100_v4.nc,HIRHAM5-monthly-ERA5_1975_2021.nc,0.00028232049711048604,1.3857099425047636,0.8410060999915003,1.757798525877297,,2.6845183,3.301293,0.8123853,0.01816614,6.21645,42.34657,-419.90457,142.62447
229,629394.2656368017,seasonal_calving_id_5_1900_2025.nc,0.00010560325398109852,MAR3.9_CNRM-CM6_ssp126_ocean_1960-2100_v4.nc,HIRHAM5-monthly-ERA5_1975_2021.nc,0.00028232049711048604,1.3857099425047636,0.6767615981400013,1.7920987929217518,,2.2469888,3.3526988,0.7888409,0.015760738,8.648735,41.27374,-330.1146,199.07903
230,629394.2656368017,seasonal_calving_id_5_1900_2025.nc,0.00010560325398109852,MAR3.9_CNRM-CM6_ssp126_ocean_1960-2100_v4.nc,HIRHAM5-monthly-ERA5_1975_2021.nc,0.00028232049711048604,1.3857099425047636,0.6767615981400013,1.757798525877297,,2.1385875,3.317133,0.8404472,0.013400295,8.914417,41.774647,-400.94034,277.27164
231,629394.2656368017,seasonal_calving_id_3_1900_2025.nc,0.00013173652372788636,MAR3.9_CSIRO-Mk3.6_rcp85_ocean_1960-2100_v4.nc,MARv3.14-monthly-ERA5_1940_2023.nc,0.00033993573043495414,1.0110537135973572,0.8410060999915003,1.7920987929217518,,3.058097,3.3098273,0.66702896,0.025209628,7.1255703,42.142944,-490.36673,727.7683
232,581859.3103438616,seasonal_calving_id_5_1900_2025.nc,0.00013173652372788636,MAR3.9_CSIRO-Mk3.6_rcp85_ocean_1960-2100_v4.nc,MARv3.14-monthly-ERA5_1940_2023.nc,0.00033993573043495414,1.0110537135973572,0.8410060999915003,1.7920987929217518,,2.5465996,3.3012614,0.746862,0.021007624,5.6715465,42.07785,-379.10263,269.8049
233,581859.3103438616,seasonal_calving_id_3_1900_2025.nc,0.00010560325398109852,MAR3.9_CSIRO-Mk3.6_rcp85_ocean_1960-2100_v4.nc,MARv3.14-monthly-ERA5_1940_2023.nc,0.00033993573043495414,1.0110537135973572,0.8410060999915003,1.7920987929217518,,3.1565204,3.2828937,0.5694699,0.020479403,10.658671,44.126675,-262.91403,186.8491
234,581859.3103438616,seasonal_calving_id_3_1900_2025.nc,0.00013173652372788636,MAR3.9_CNRM-CM6_ssp126_ocean_1960-2100_v4.nc,MARv3.14-monthly-ERA5_1940_2023.nc,0.00033993573043495414,1.0110537135973572,0.8410060999915003,1.7920987929217518,,2.8043365,3.33058,0.8244812,0.021314215,9.533815,42.25317,-292.37137,204.00838
235,581859.3103438616,seasonal_calving_id_3_1900_2025.nc,0.00013173652372788636,MAR3.9_CSIRO-Mk3.6_rcp85_ocean_1960-2100_v4.nc,HIRHAM5-monthly-ERA5_1975_2021.nc,0.00033993573043495414,1.0110537135973572,0.8410060999915003,1.7920987929217518,,2.830681,3.369546,0.7235097,0.019766934,12.357636,40.80513,-578.85156,262.4116
236,581859.3103438616,seasonal_calving_id_3_1900_2025.nc,0.00013173652372788636,MAR3.9_CSIRO-Mk3.6_rcp85_ocean_1960-2100_v4.nc,MARv3.14-monthly-ERA5_1940_2023.nc,0.00028232049711048604,1.0110537135973572,0.8410060999915003,1.7920987929217518,,2.8448398,3.289567,0.72478914,0.019870467,7.2026954,42.087902,-403.1149,424.7704
237,581859.3103438616,seasonal_calving_id_3_1900_2025.nc,0.00013173652372788636,MAR3.9_CSIRO-Mk3.6_rcp85_ocean_1960-2100_v4.nc,MARv3.14-monthly-ERA5_1940_2023.nc,0.00033993573043495414,1.3857099425047636,0.8410060999915003,1.7920987929217518,,2.564033,3.3460648,0.73451424,0.018758846,8.853287,40.31556,-319.1397,265.45197
238,581859.3103438616,seasonal_calving_id_3_1900_2025.nc,0.00013173652372788636,MAR3.9_CSIRO-Mk3.6_rcp85_ocean_1960-2100_v4.nc,MARv3.14-monthly-ERA5_1940_2023.nc,0.00033993573043495414,1.0110537135973572,0.6767615981400013,1.7920987929217518,,2.298525,3.27856,0.73592025,0.013229154,8.068629,42.525215,-405.2162,153.00145
239,581859.3103438616,seasonal_calving_id_3_1900_2025.nc,0.00013173652372788636,MAR3.9_CSIRO-Mk3.6_rcp85_ocean_1960-2100_v4.nc,MARv3.14-monthly-ERA5_1940_2023.nc,0.00033993573043495414,1.0110537135973572,0.8410060999915003,1.757798525877297,,2.400385,3.269378,0.6785017,0.020245021,5.957983,41.043537,-407.59006,426.7272
240,581859.3103438616,seasonal_calving_id_3_1900_2025.nc,0.00013173652372788636,MAR3.9_CSIRO-Mk3.6_rcp85_ocean_1960-2100_v4.nc,MARv3.14-monthly-ERA5_1940_2023.nc,0.00033993573043495414,1.0110537135973572,0.8410060999915003,1.7920987929217518,,2.4799051,3.2564108,0.78888726,0.017045522,8.450308,42.30484,-323.93716,165.31798
241,581859.3103438616,seasonal_calving_id_3_1900_2025.nc,0.00013173652372788636,MAR3.9_CSIRO-Mk3.6_rcp85_ocean_1960-2100_v4.nc,MARv3.14-monthly-ERA5_1940_2023.nc,0.00033993573043495414,1.0110537135973572,0.8410060999915003,1.7920987929217518,,2.398516,3.2680032,0.68929845,0.012912895,7.801439,42.58159,-470.23163,181.7261
242,416189.90870192647,seasonal_calving_id_2_1900_2025.nc,0.00014443783541209993,MAR3.9_MIROC-ESM-CHEM_rcp85_ocean_1960-2100_v4.nc,MARv3.14-monthly-ERA5_1940_2023.nc,0.0003343085851147771,1.2126078628003598,0.40990653857588766,1.3380749146454036,pism_g450m_frontretreat_calfin_1972_2019.nc,2.6581807,3.3000245,0.7401632,0.02031813,6.5075917,41.809788,-315.24533,123.61457
243,439328.87045666575,seasonal_calving_id_2_1900_2025.nc,0.00014443783541209993,MAR3.9_MIROC-ESM-CHEM_rcp85_ocean_1960-2100_v4.nc,MARv3.14-monthly-ERA5_1940_2023.nc,0.0003343085851147771,1.2126078628003598,0.40990653857588766,1.3380749146454036,pism_g450m_frontretreat_calfin_1972_2019.nc,2.2335515,3.3018916,0.7764598,0.0139772985,9.05927,42.697533,-386.59192,178.92256
244,416189.90870192647,seasonal_calving_id_5_1900_2025.nc,0.00014443783541209993,MAR3.9_MIROC-ESM-CHEM_rcp85_ocean_1960-2100_v4.nc,MARv3.14-monthly-ERA5_1940_2023.nc,0.0003343085851147771,1.2126078628003598,0.40990653857588766,1.3380749146454036,pism_g450m_frontretreat_calfin_1972_2019.nc,2.6325128,3.3121078,0.6796463,0.017351476,9.091365,42.76319,-209.98584,73.843346
245,416189.90870192647,seasonal_calving_id_2_1900_2025.nc,0.00010169590646401047,MAR3.9_MIROC-ESM-CHEM_rcp85_ocean_1960-2100_v4.nc,MARv3.14-monthly-ERA5_1940_2023.nc,0.0003343085851147771,1.2126078628003598,0.40990653857588766,1.3380749146454036,pism_g450m_frontretreat_calfin_1972_2019.nc,2.49716,3.2774286,0.58736014,0.016006604,9.705982,44.724304,-305.2112,96.66728
246,416189.90870192647,seasonal_calving_id_2_1900_2025.nc,0.00014443783541209993,MAR3.9_MIROC-ESM-CHEM_rcp26_ocean_1960-2100_v4.nc,MARv3.14-monthly-ERA5_1940_2023.nc,0.0003343085851147771,1.2126078628003598,0.40990653857588766,1.3380749146454036,pism_g450m_frontretreat_calfin_1972_2019.nc,3.0857494,3.3565373,0.7438052,0.018062605,9.584268,41.525673,-395.54614,164.06119
247,416189.90870192647,seasonal_calving_id_2_1900_2025.nc,0.00014443783541209993,MAR3.9_MIROC-ESM-CHEM_rcp85_ocean_1960-2100_v4.nc,MARv3.14-monthly-ERA5_1940_2023.nc,0.0003343085851147771,1.2126078628003598,0.40990653857588766,1.3380749146454036,pism_g450m_frontretreat_calfin_1972_2019.nc,2.8767765,3.3204584,0.71713763,0.015103774,6.4012556,43.197414,-438.53348,185.82143
248,416189.90870192647,seasonal_calving_id_2_1900_2025.nc,0.00014443783541209993,MAR3.9_MIROC-ESM-CHEM_rcp85_ocean_1960-2100_v4.nc,MARv3.14-monthly-ERA5_1940_2023.nc,0.0002977375623956323,1.2126078628003598,0.40990653857588766,1.3380749146454036,pism_g450m_frontretreat_calfin_1972_2019.nc,2.990482,3.2752256,0.7892509,0.019908758,7.491244,42.815884,-308.238,147.44801
249,416189.90870192647,seasonal_calving_id_2_1900_2025.nc,0.00014443783541209993,MAR3.9_MIROC-ESM-CHEM_rcp85_ocean_1960-2100_v4.nc,MARv3.14-monthly-ERA5_1940_2023.nc,0.0003343085851147771,1.680811208114028,0.40990653857588766,1.3380749146454036,pism_g450m_frontretreat_calfin_1972_2019.nc,2.7550926,3.359083,0.7878669,0.016100707,7.0443892,40.61092,-410.45206,186.44968
250,416189.90870192647,seasonal_calving_id_2_1900_2025.nc,0.00014443783541209993,MAR3.9_MIROC-ESM-CHEM_rcp85_ocean_1960-2100_v4.nc,MARv3.14-monthly-ERA5_1940_2023.nc,0.0003343085851147771,1.2126078628003598,0.5012753784656525,1.3380749146454036,pism_g450m_frontretreat_calfin_1972_2019.nc,2.2436175,3.31091,0.70822173,0.021167073,9.619675,40.468746,-490.74945,484.09387
251,416189.90870192647,seasonal_calving_id_2_1900_2025.nc,0.00014443783541209993,MAR3.9_MIROC-ESM-CHEM_rcp85_ocean_1960-2100_v4.nc,MARv3.14-monthly-ERA5_1940_2023.nc,0.0003343085851147771,1.2126078628003598,0.40990653857588766,1.3990436258725822,pism_g450m_frontretreat_calfin_1972_2019.nc,2.378378,3.304965,0.61342335,0.015346415,13.324388,43.98999,-466.56317,342.39343
252,416189.90870192647,seasonal_calving_id_2_1900_2025.nc,0.00014443783541209993,MAR3.9_MIROC-ESM-CHEM_rcp85_ocean_1960-2100_v4.nc,MARv3.14-monthly-ERA5_1940_2023.nc,0.0003343085851147771,1.2126078628003598,0.40990653857588766,1.3380749146454036,pism_g450m_frontretreat_calfin_1972_2019.nc,2.4473941,3.269227,0.6712783,0.016596716,5.775499,40.815132,-415.91232,169.88997
253,416189.90870192647,seasonal_calving_id_5_1900_2025.nc,0.00010169590646401047,MAR3.9_MIROC-ESM-CHEM_rcp26_ocean_1960-2100_v4.nc,MARv3.14-monthly-ERA5_1940_2023.nc,0.0002977375623956323,1.680811208114028,0.5012753784656525,1.3990436258725822,pism_g450m_frontretreat_calfin_1972_2019.nc,2.7820415,3.3335197,0.7416559,0.018458234,7.245901,41.25499,-256.65808,185.17833
254,439328.87045666575,seasonal_calving_id_2_1900_2025.nc,0.00010169590646401047,MAR3.9_MIROC-ESM-CHEM_rcp26_ocean_1960-2100_v4.nc,MARv3.14-monthly-ERA5_1940_2023.nc,0.0002977375623956323,1.680811208114028,0.5012753784656525,1.3990436258725822,pism_g450m_frontretreat_calfin_1972_2019.nc,2.5158627,3.2455163,0.7351806,0.020718466,8.579772,43.72245,-382.8499,408.8692
255,439328.87045666575,seasonal_calving_id_5_1900_2025.nc,0.00014443783541209993,MAR3.9_MIROC-ESM-CHEM_rcp26_ocean_1960-2100_v4.nc,MARv3.14-monthly-ERA5_1940_2023.nc,0.0002977375623956323,1.680811208114028,0.5012753784656525,1.3990436258725822,pism_g450m_frontretreat_calfin_1972_2019.nc,2.6867843,3.3167927,0.825005,0.019028174,8.86383,41.94119,-337.99344,217.16516
256,439328.87045666575,seasonal_calving_id_5_1900_2025.nc,0.00010169590646401047,MAR3.9_MIROC-ESM-CHEM_rcp85_ocean_1960-2100_v4.nc,MARv3.14-monthly-ERA5_1940_2023.nc,0.0002977375623956323,1.680811208114028,0.5012753784656525,1.3990436258725822,pism_g450m_frontretreat_calfin_1972_2019.nc,2.3621624,3.3444822,0.84805423,0.0139581235,6.0940537,41.485954,-489.09708,131.45575
257,439328.87045666575,seasonal_calving_id_5_1900_2025.nc,0.00010169590646401047,MAR3.9_MIROC-ESM-CHEM_rcp26_ocean_1960-2100_v4.nc,MARv3.14-monthly-ERA5_1940_2023.nc,0.0002977375623956323,1.680811208114028,0.5012753784656525,1.3990436258725822,pism_g450m_frontretreat_calfin_1972_2019.nc,2.6937535,3.2598348,0.8149865,0.018135242,6.3602777,43.0254,-348.78165,244.36406
258,439328.87045666575,seasonal_calving_id_5_1900_2025.nc,0.00010169590646401047,MAR3.9_MIROC-ESM-CHEM_rcp26_ocean_1960-2100_v4.nc,MARv3.14-monthly-ERA5_1940_2023.nc,0.0003343085851147771,1.680811208114028,0.5012753784656525,1.3990436258725822,pism_g450m_frontretreat_calfin_1972_2019.nc,2.6361852,3.3282883,0.84631604,0.020075416,5.658582,42.35477,-566.46204,448.76172
259,439328.87045666575,seasonal_calving_id_5_1900_2025.nc,0.00010169590646401047,MAR3.9_MIROC-ESM-CHEM_rcp26_ocean_1960-2100_v4.nc,MARv3.14-monthly-ERA5_1940_2023.nc,0.0002977375623956323,1.2126078628003598,0.5012753784656525,1.3990436258725822,pism_g450m_frontretreat_calfin_1972_2019.nc,2.9451873,3.2945027,0.50253785,0.02170084,11.955014,43.34136,-396.53864,367.61612
260,439328.87045666575,seasonal_calving_id_5_1900_2025.nc,0.00010169590646401047,MAR3.9_MIROC-ESM-CHEM_rcp26_ocean_1960-2100_v4.nc,MARv3.14-monthly-ERA5_1940_2023.nc,0.0002977375623956323,1.680811208114028,0.40990653857588766,1.3990436258725822,pism_g450m_frontretreat_calfin_1972_2019.nc,2.4964838,3.3221922,0.74528307,0.017118087,6.381897,40.142307,-428.61548,180.70338
261,439328.87045666575,seasonal_calving_id_5_1900_2025.nc,0.00010169590646401047,MAR3.9_MIROC-ESM-CHEM_rcp26_ocean_1960-2100_v4.nc,MARv3.14-monthly-ERA5_1940_2023.nc,0.0002977375623956323,1.680811208114028,0.5012753784656525,1.3380749146454036,pism_g450m_frontretreat_calfin_1972_2019.nc,2.8734894,3.2945826,0.7251439,0.024000734,7.8599496,41.793533,-288.82916,445.71094
262,439328.87045666575,seasonal_calving_id_5_1900_2025.nc,0.00010169590646401047,MAR3.9_MIROC-ESM-CHEM_rcp26_ocean_1960-2100_v4.nc,MARv3.14-monthly-ERA5_1940_2023.nc,0.0002977375623956323,1.680811208114028,0.5012753784656525,1.3990436258725822,pism_g450m_frontretreat_calfin_1972_2019.nc,2.7762313,3.3401282,0.83054173,0.027856736,6.2726974,41.602936,-292.6287,635.94434
263,439328.87045666575,seasonal_calving_id_5_1900_2025.nc,0.00010169590646401047,MAR3.9_MIROC-ESM-CHEM_rcp26_ocean_1960-2100_v4.nc,MARv3.14-monthly-ERA5_1940_2023.nc,0.0002977375623956323,1.680811208114028,0.5012753784656525,1.3990436258725822,pism_g450m_frontretreat_calfin_1972_2019.nc,2.7606103,3.3405704,0.7947395,0.015195321,5.307157,41.99663,-461.553,138.69807
264,352274.1458378732,seasonal_calving_id_6_1900_2025.nc,0.00012074561768677086,MAR3.9_UKESM1-CM6_ssp585_ocean_1960-2100_v4.nc,MARv3.14-monthly-ERA5_1940_2023.nc,0.0003283528200164437,1.439623090904206,0.5762748290318995,1.7077459249645472,,2.680734,3.2587738,0.77207685,0.017080564,5.4838796,43.48736,-439.94806,300.86823
265,634863.6577837169,seasonal_calving_id_6_1900_2025.nc,0.00012074561768677086,MAR3.9_UKESM1-CM6_ssp585_ocean_1960-2100_v4.nc,MARv3.14-monthly-ERA5_1940_2023.nc,0.0003283528200164437,1.439623090904206,0.5762748290318995,1.7077459249645472,,2.6145546,3.37929,0.767012,0.014861526,6.4916134,44.50278,-609.91034,284.29846
266,352274.1458378732,seasonal_calving_id_6_1900_2025.nc,0.00012074561768677086,MAR3.9_UKESM1-CM6_ssp585_ocean_1960-2100_v4.nc,MARv3.14-monthly-ERA5_1940_2023.nc,0.0003283528200164437,1.439623090904206,0.5762748290318995,1.7077459249645472,,2.666674,3.3013759,0.71555907,0.024013251,9.944186,41.01798,-222.73631,382.05768
267,352274.1458378732,seasonal_calving_id_6_1900_2025.nc,0.0001420291377464309,MAR3.9_UKESM1-CM6_ssp585_ocean_1960-2100_v4.nc,MARv3.14-monthly-ERA5_1940_2023.nc,0.0003283528200164437,1.439623090904206,0.5762748290318995,1.7077459249645472,,2.1482165,3.3573039,0.81228006,0.022620087,7.0182424,43.449154,-314.72733,655.9365
268,352274.1458378732,seasonal_calving_id_6_1900_2025.nc,0.00012074561768677086,MAR3.9_MIROC-ESM-CHEM_rcp85_ocean_1960-2100_v4.nc,MARv3.14-monthly-ERA5_1940_2023.nc,0.0003283528200164437,1.439623090904206,0.5762748290318995,1.7077459249645472,,3.1583335,3.3182836,0.57082933,0.018789418,7.03726,42.999947,-561.6952,269.43338
269,352274.1458378732,seasonal_calving_id_6_1900_2025.nc,0.00012074561768677086,MAR3.9_UKESM1-CM6_ssp585_ocean_1960-2100_v4.nc,RACMO2.3p2_ERA5_FGRN055_1940_2023.nc,0.0003283528200164437,1.439623090904206,0.5762748290318995,1.7077459249645472,,2.5100324,3.3767793,0.79223067,0.015043349,7.513509,43.254475,-361.18774,97.276695
270,352274.1458378732,seasonal_calving_id_6_1900_2025.nc,0.00012074561768677086,MAR3.9_UKESM1-CM6_ssp585_ocean_1960-2100_v4.nc,MARv3.14-monthly-ERA5_1940_2023.nc,0.0002735088029131293,1.439623090904206,0.5762748290318995,1.7077459249645472,,2.4378984,3.2891097,0.74803656,0.016837995,8.246432,40.750824,-400.69186,177.36043
271,352274.1458378732,seasonal_calving_id_6_1900_2025.nc,0.00012074561768677086,MAR3.9_UKESM1-CM6_ssp585_ocean_1960-2100_v4.nc,MARv3.14-monthly-ERA5_1940_2023.nc,0.0003283528200164437,1.6111617306247354,0.5762748290318995,1.7077459249645472,,2.517817,3.322777,0.82804,0.018128851,10.605212,41.657043,-222.67146,354.3246
272,352274.1458378732,seasonal_calving_id_6_1900_2025.nc,0.00012074561768677086,MAR3.9_UKESM1-CM6_ssp585_ocean_1960-2100_v4.nc,MARv3.14-monthly-ERA5_1940_2023.nc,0.0003283528200164437,1.439623090904206,0.5443914286792279,1.7077459249645472,,1.9991484,3.266935,0.7853458,0.012007917,7.883881,42.4591,-435.29218,27.062088
273,352274.1458378732,seasonal_calving_id_6_1900_2025.nc,0.00012074561768677086,MAR3.9_UKESM1-CM6_ssp585_ocean_1960-2100_v4.nc,MARv3.14-monthly-ERA5_1940_2023.nc,0.0003283528200164437,1.439623090904206,0.5762748290318995,1.6996160842478276,,3.187165,3.3116522,0.7351964,0.020645348,8.286623,44.62511,-343.98456,501.2832
274,352274.1458378732,seasonal_calving_id_6_1900_2025.nc,0.00012074561768677086,MAR3.9_UKESM1-CM6_ssp585_ocean_1960-2100_v4.nc,MARv3.14-monthly-ERA5_1940_2023.nc,0.0003283528200164437,1.439623090904206,0.5762748290318995,1.7077459249645472,,2.4190273,3.2566736,0.54643583,0.020545235,7.1805606,42.036293,-404.57538,131.20802
275,352274.1458378732,seasonal_calving_id_6_1900_2025.nc,0.0001420291377464309,MAR3.9_MIROC-ESM-CHEM_rcp85_ocean_1960-2100_v4.nc,RACMO2.3p2_ERA5_FGRN055_1940_2023.nc,0.0002735088029131293,1.6111617306247354,0.5443914286792279,1.6996160842478276,,3.202852,3.327037,0.76802826,0.018667087,9.509836,44.074078,-288.84778,125.46403
276,634863.6577837169,seasonal_calving_id_6_1900_2025.nc,0.0001420291377464309,MAR3.9_MIROC-ESM-CHEM_rcp85_ocean_1960-2100_v4.nc,RACMO2.3p2_ERA5_FGRN055_1940_2023.nc,0.0002735088029131293,1.6111617306247354,0.5443914286792279,1.6996160842478276,,2.7508187,3.2741282,0.69676656,0.025539298,8.093782,41.156548,-305.32538,387.6599
277,634863.6577837169,seasonal_calving_id_6_1900_2025.nc,0.00012074561768677086,MAR3.9_MIROC-ESM-CHEM_rcp85_ocean_1960-2100_v4.nc,RACMO2.3p2_ERA5_FGRN055_1940_2023.nc,0.0002735088029131293,1.6111617306247354,0.5443914286792279,1.6996160842478276,,2.5825343,3.2921457,0.7328504,0.014407582,5.9763975,43.69636,-381.87915,132.69617
278,634863.6577837169,seasonal_calving_id_6_1900_2025.nc,0.0001420291377464309,MAR3.9_UKESM1-CM6_ssp585_ocean_1960-2100_v4.nc,RACMO2.3p2_ERA5_FGRN055_1940_2023.nc,0.0002735088029131293,1.6111617306247354,0.5443914286792279,1.6996160842478276,,2.1840694,3.339948,0.8146303,0.019990675,5.891474,43.4299,-412.00348,401.60513
279,634863.6577837169,seasonal_calving_id_6_1900_2025.nc,0.0001420291377464309,MAR3.9_MIROC-ESM-CHEM_rcp85_ocean_1960-2100_v4.nc,MARv3.14-monthly-ERA5_1940_2023.nc,0.0002735088029131293,1.6111617306247354,0.5443914286792279,1.6996160842478276,,2.4499457,3.2535644,0.87427133,0.016801978,7.756468,41.220463,-256.97052,271.9661
280,634863.6577837169,seasonal_calving_id_6_1900_2025.nc,0.0001420291377464309,MAR3.9_MIROC-ESM-CHEM_rcp85_ocean_1960-2100_v4.nc,RACMO2.3p2_ERA5_FGRN055_1940_2023.nc,0.0003283528200164437,1.6111617306247354,0.5443914286792279,1.6996160842478276,,2.524522,3.3171825,0.7041957,0.017683852,9.608814,42.024128,-374.22263,310.94952
281,634863.6577837169,seasonal_calving_id_6_1900_2025.nc,0.0001420291377464309,MAR3.9_MIROC-ESM-CHEM_rcp85_ocean_1960-2100_v4.nc,RACMO2.3p2_ERA5_FGRN055_1940_2023.nc,0.0002735088029131293,1.439623090904206,0.5443914286792279,1.6996160842478276,,2.4508374,3.311533,0.76838857,0.01499217,8.275529,41.752316,-367.5182,210.90138
282,634863.6577837169,seasonal_calving_id_6_1900_2025.nc,0.0001420291377464309,MAR3.9_MIROC-ESM-CHEM_rcp85_ocean_1960-2100_v4.nc,RACMO2.3p2_ERA5_FGRN055_1940_2023.nc,0.0002735088029131293,1.6111617306247354,0.5762748290318995,1.6996160842478276,,2.7423525,3.2441869,0.681715,0.020795854,5.1173987,43.55981,-370.96448,216.26218
283,634863.6577837169,seasonal_calving_id_6_1900_2025.nc,0.0001420291377464309,MAR3.9_MIROC-ESM-CHEM_rcp85_ocean_1960-2100_v4.nc,RACMO2.3p2_ERA5_FGRN055_1940_2023.nc,0.0002735088029131293,1.6111617306247354,0.5443914286792279,1.7077459249645472,,2.5889766,3.3113058,0.67875,0.015736531,5.778259,42.914814,-371.1617,120.44789
284,634863.6577837169,seasonal_calving_id_6_1900_2025.nc,0.0001420291377464309,MAR3.9_MIROC-ESM-CHEM_rcp85_ocean_1960-2100_v4.nc,RACMO2.3p2_ERA5_FGRN055_1940_2023.nc,0.0002735088029131293,1.6111617306247354,0.5443914286792279,1.6996160842478276,,2.5695682,3.314934,0.71466786,0.014089672,6.1377926,42.451946,-448.29565,118.03965
285,634863.6577837169,seasonal_calving_id_6_1900_2025.nc,0.0001420291377464309,MAR3.9_MIROC-ESM-CHEM_rcp85_ocean_1960-2100_v4.nc,RACMO2.3p2_ERA5_FGRN055_1940_2023.nc,0.0002735088029131293,1.6111617306247354,0.5443914286792279,1.6996160842478276,,2.8000379,3.3242974,0.7200077,0.025677746,7.5482154,43.42431,-278.0306,380.45175
286,602984.0828850865,seasonal_calving_id_3_1900_2025.nc,8.241933721583335e-05,MAR3.9_CNRM-CM6_ssp126_ocean_1960-2100_v4.nc,HIRHAM5-monthly-ERA5_1975_2021.nc,0.0002620418217033148,1.2626010491512716,0.3620570455212146,1.4329456307925286,pism_g450m_frontretreat_calfin_1972_2019.nc,2.1732056,3.277252,0.78115183,0.016870003,7.023585,44.127815,-356.0406,169.69783
287,494091.0320729017,seasonal_calving_id_3_1900_2025.nc,8.241933721583335e-05,MAR3.9_CNRM-CM6_ssp126_ocean_1960-2100_v4.nc,HIRHAM5-monthly-ERA5_1975_2021.nc,0.0002620418217033148,1.2626010491512716,0.3620570455212146,1.4329456307925286,pism_g450m_frontretreat_calfin_1972_2019.nc,3.1264186,3.2643807,0.7887428,0.026907424,5.237298,40.96485,-318.40033,257.03433
288,602984.0828850865,seasonal_calving_id_2_1900_2025.nc,8.241933721583335e-05,MAR3.9_CNRM-CM6_ssp126_ocean_1960-2100_v4.nc,HIRHAM5-monthly-ERA5_1975_2021.nc,0.0002620418217033148,1.2626010491512716,0.3620570455212146,1.4329456307925286,pism_g450m_frontretreat_calfin_1972_2019.nc,2.8763857,3.2990222,0.8371797,0.024311503,5.823645,43.464928,-308.68198,258.19208
289,602984.0828850865,seasonal_calving_id_3_1900_2025.nc,0.0001120570106897503,MAR3.9_CNRM-CM6_ssp126_ocean_1960-2100_v4.nc,HIRHAM5-monthly-ERA5_1975_2021.nc,0.0002620418217033148,1.2626010491512716,0.3620570455212146,1.4329456307925286,pism_g450m_frontretreat_calfin_1972_2019.nc,2.8363438,3.2883637,0.80270034,0.022397406,5.67968,43.29129,-240.62595,244.07736
290,602984.0828850865,seasonal_calving_id_3_1900_2025.nc,8.241933721583335e-05,MAR3.9_ACCESS1-3_rcp85_ocean_1960-2100_v4.nc,HIRHAM5-monthly-ERA5_1975_2021.nc,0.0002620418217033148,1.2626010491512716,0.3620570455212146,1.4329456307925286,pism_g450m_frontretreat_calfin_1972_2019.nc,3.1645448,3.3036358,0.6914103,0.025255358,5.3854036,42.466614,-486.2304,414.78275
291,602984.0828850865,seasonal_calving_id_3_1900_2025.nc,8.241933721583335e-05,MAR3.9_CNRM-CM6_ssp126_ocean_1960-2100_v4.nc,MARv3.14-monthly-ERA5_1940_2023.nc,0.0002620418217033148,1.2626010491512716,0.3620570455212146,1.4329456307925286,pism_g450m_frontretreat_calfin_1972_2019.nc,2.9071553,3.2975256,0.7932448,0.017094305,5.4497633,42.09209,-598.7443,500.21356
292,602984.0828850865,seasonal_calving_id_3_1900_2025.nc,8.241933721583335e-05,MAR3.9_CNRM-CM6_ssp126_ocean_1960-2100_v4.nc,HIRHAM5-monthly-ERA5_1975_2021.nc,0.0003493983485922217,1.2626010491512716,0.3620570455212146,1.4329456307925286,pism_g450m_frontretreat_calfin_1972_2019.nc,2.2897253,3.3570533,0.8327194,0.019222254,8.584666,40.763958,-271.09424,290.9398
293,602984.0828850865,seasonal_calving_id_3_1900_2025.nc,8.241933721583335e-05,MAR3.9_CNRM-CM6_ssp126_ocean_1960-2100_v4.nc,HIRHAM5-monthly-ERA5_1975_2021.nc,0.0002620418217033148,1.096933202072978,0.3620570455212146,1.4329456307925286,pism_g450m_frontretreat_calfin_1972_2019.nc,2.2619443,3.2934158,0.5728944,0.017217468,7.8761554,41.218353,-507.45004,178.75935
294,602984.0828850865,seasonal_calving_id_3_1900_2025.nc,8.241933721583335e-05,MAR3.9_CNRM-CM6_ssp126_ocean_1960-2100_v4.nc,HIRHAM5-monthly-ERA5_1975_2021.nc,0.0002620418217033148,1.2626010491512716,0.7635223930701613,1.4329456307925286,pism_g450m_frontretreat_calfin_1972_2019.nc,2.5731459,3.3198814,0.7260781,0.017914027,8.396108,41.165707,-373.5836,439.3205
295,602984.0828850865,seasonal_calving_id_3_1900_2025.nc,8.241933721583335e-05,MAR3.9_CNRM-CM6_ssp126_ocean_1960-2100_v4.nc,HIRHAM5-monthly-ERA5_1975_2021.nc,0.0002620418217033148,1.2626010491512716,0.3620570455212146,1.305172283947468,pism_g450m_frontretreat_calfin_1972_2019.nc,2.307892,3.239792,0.7302864,0.019319342,7.1677265,40.390923,-383.03906,348.6269
296,602984.0828850865,seasonal_calving_id_3_1900_2025.nc,8.241933721583335e-05,MAR3.9_CNRM-CM6_ssp126_ocean_1960-2100_v4.nc,HIRHAM5-monthly-ERA5_1975_2021.nc,0.0002620418217033148,1.2626010491512716,0.3620570455212146,1.4329456307925286,pism_g450m_frontretreat_calfin_1972_2019.nc,2.2357752,3.3075545,0.764477,0.014064296,10.002373,41.50679,-359.36026,141.76578
297,602984.0828850865,seasonal_calving_id_2_1900_2025.nc,0.0001120570106897503,MAR3.9_ACCESS1-3_rcp85_ocean_1960-2100_v4.nc,MARv3.14-monthly-ERA5_1940_2023.nc,0.0003493983485922217,1.096933202072978,0.7635223930701613,1.305172283947468,pism_g450m_frontretreat_calfin_1972_2019.nc,2.5432546,3.3299098,0.69404465,0.015683817,9.781498,43.08394,-393.3841,286.33395
298,494091.0320729017,seasonal_calving_id_3_1900_2025.nc,0.0001120570106897503,MAR3.9_ACCESS1-3_rcp85_ocean_1960-2100_v4.nc,MARv3.14-monthly-ERA5_1940_2023.nc,0.0003493983485922217,1.096933202072978,0.7635223930701613,1.305172283947468,pism_g450m_frontretreat_calfin_1972_2019.nc,2.7702734,3.3239217,0.81244755,0.020281686,7.0961537,42.1317,-451.74625,358.13992
299,494091.0320729017,seasonal_calving_id_2_1900_2025.nc,8.241933721583335e-05,MAR3.9_ACCESS1-3_rcp85_ocean_1960-2100_v4.nc,MARv3.14-monthly-ERA5_1940_2023.nc,0.0003493983485922217,1.096933202072978,0.7635223930701613,1.305172283947468,pism_g450m_frontretreat_calfin_1972_2019.nc,2.8698084,3.3176627,0.79768634,0.020680562,8.760215,42.081245,-285.2386,505.35834
300,494091.0320729017,seasonal_calving_id_2_1900_2025.nc,0.0001120570106897503,MAR3.9_CNRM-CM6_ssp126_ocean_1960-2100_v4.nc,MARv3.14-monthly-ERA5_1940_2023.nc,0.0003493983485922217,1.096933202072978,0.7635223930701613,1.305172283947468,pism_g450m_frontretreat_calfin_1972_2019.nc,3.0982726,3.316738,0.6005453,0.023377046,6.011667,40.817753,-436.0182,248.31158
301,494091.0320729017,seasonal_calving_id_2_1900_2025.nc,0.0001120570106897503,MAR3.9_ACCESS1-3_rcp85_ocean_1960-2100_v4.nc,HIRHAM5-monthly-ERA5_1975_2021.nc,0.0003493983485922217,1.096933202072978,0.7635223930701613,1.305172283947468,pism_g450m_frontretreat_calfin_1972_2019.nc,3.0007524,3.3226547,0.71652657,0.016493298,8.581998,41.735527,-331.01675,86.35394
302,494091.0320729017,seasonal_calving_id_2_1900_2025.nc,0.0001120570106897503,MAR3.9_ACCESS1-3_rcp85_ocean_1960-2100_v4.nc,MARv3.14-monthly-ERA5_1940_2023.nc,0.0002620418217033148,1.096933202072978,0.7635223930701613,1.305172283947468,pism_g450m_frontretreat_calfin_1972_2019.nc,2.7496068,3.2817595,0.747293,0.017104736,6.002328,42.96194,-309.88007,111.41885
303,494091.0320729017,seasonal_calving_id_2_1900_2025.nc,0.0001120570106897503,MAR3.9_ACCESS1-3_rcp85_ocean_1960-2100_v4.nc,MARv3.14-monthly-ERA5_1940_2023.nc,0.0003493983485922217,1.2626010491512716,0.7635223930701613,1.305172283947468,pism_g450m_frontretreat_calfin_1972_2019.nc,2.730089,3.3406928,0.8176591,0.014611793,8.431914,43.24266,-330.5493,57.430428
304,494091.0320729017,seasonal_calving_id_2_1900_2025.nc,0.0001120570106897503,MAR3.9_ACCESS1-3_rcp85_ocean_1960-2100_v4.nc,MARv3.14-monthly-ERA5_1940_2023.nc,0.0003493983485922217,1.096933202072978,0.3620570455212146,1.305172283947468,pism_g450m_frontretreat_calfin_1972_2019.nc,2.422298,3.2312808,0.9163773,0.021455353,5.6800604,43.434383,-224.65608,181.82144
305,494091.0320729017,seasonal_calving_id_2_1900_2025.nc,0.0001120570106897503,MAR3.9_ACCESS1-3_rcp85_ocean_1960-2100_v4.nc,MARv3.14-monthly-ERA5_1940_2023.nc,0.0003493983485922217,1.096933202072978,0.7635223930701613,1.4329456307925286,pism_g450m_frontretreat_calfin_1972_2019.nc,2.6455965,3.3861613,0.8421848,0.01840403,10.76808,44.07926,-345.42664,494.27512
306,494091.0320729017,seasonal_calving_id_2_1900_2025.nc,0.0001120570106897503,MAR3.9_ACCESS1-3_rcp85_ocean_1960-2100_v4.nc,MARv3.14-monthly-ERA5_1940_2023.nc,0.0003493983485922217,1.096933202072978,0.7635223930701613,1.305172283947468,pism_g450m_frontretreat_calfin_1972_2019.nc,2.2048528,3.2671647,0.80797386,0.013351928,4.978667,42.305035,-641.7824,231.48712
307,494091.0320729017,seasonal_calving_id_2_1900_2025.nc,0.0001120570106897503,MAR3.9_ACCESS1-3_rcp85_ocean_1960-2100_v4.nc,MARv3.14-monthly-ERA5_1940_2023.nc,0.0003493983485922217,1.096933202072978,0.7635223930701613,1.305172283947468,pism_g450m_frontretreat_calfin_1972_2019.nc,2.5955293,3.305464,0.89332867,0.017914858,7.0605392,43.93931,-280.9718,125.80636
308,552100.9492687881,seasonal_calving_id_4_1900_2025.nc,0.0001398457018425688,MAR3.9_IPSL-CM5-MR_rcp85_ocean_1960-2100_v4.nc,MARv3.14-monthly-ERA5_1940_2023.nc,0.0002947912710160017,1.611466516368091,0.45300300274975597,1.1326776797883213,pism_g450m_frontretreat_calfin_1972_2019.nc,2.2393105,3.3148518,0.6801078,0.014259823,10.754485,41.576786,-237.27127,116.972145
309,378107.3904596269,seasonal_calving_id_4_1900_2025.nc,0.0001398457018425688,MAR3.9_IPSL-CM5-MR_rcp85_ocean_1960-2100_v4.nc,MARv3.14-monthly-ERA5_1940_2023.nc,0.0002947912710160017,1.611466516368091,0.45300300274975597,1.1326776797883213,pism_g450m_frontretreat_calfin_1972_2019.nc,2.8365867,3.307207,0.6296737,0.017651135,7.282627,43.8844,-469.63416,179.54826
310,552100.9492687881,seasonal_calving_id_0_1900_2025.nc,0.0001398457018425688,MAR3.9_IPSL-CM5-MR_rcp85_ocean_1960-2100_v4.nc,MARv3.14-monthly-ERA5_1940_2023.nc,0.0002947912710160017,1.611466516368091,0.45300300274975597,1.1326776797883213,pism_g450m_frontretreat_calfin_1972_2019.nc,2.8324282,3.2935164,0.74365276,0.0169614,8.038162,43.293873,-275.62354,182.70361
311,552100.9492687881,seasonal_calving_id_4_1900_2025.nc,0.0001240496126236394,MAR3.9_IPSL-CM5-MR_rcp85_ocean_1960-2100_v4.nc,MARv3.14-monthly-ERA5_1940_2023.nc,0.0002947912710160017,1.611466516368091,0.45300300274975597,1.1326776797883213,pism_g450m_frontretreat_calfin_1972_2019.nc,2.67408,3.3469338,0.8057716,0.019075103,9.419734,42.780945,-456.9859,429.5762
312,552100.9492687881,seasonal_calving_id_4_1900_2025.nc,0.0001398457018425688,MAR3.9_HadGEM2-ES_rcp85_ocean_1960-2100_v4.nc,MARv3.14-monthly-ERA5_1940_2023.nc,0.0002947912710160017,1.611466516368091,0.45300300274975597,1.1326776797883213,pism_g450m_frontretreat_calfin_1972_2019.nc,2.034133,3.3467429,0.90028757,0.0134543255,5.4834266,43.455208,-504.8629,299.21063
313,552100.9492687881,seasonal_calving_id_4_1900_2025.nc,0.0001398457018425688,MAR3.9_IPSL-CM5-MR_rcp85_ocean_1960-2100_v4.nc,HIRHAM5-monthly-ERA5_1975_2021.nc,0.0002947912710160017,1.611466516368091,0.45300300274975597,1.1326776797883213,pism_g450m_frontretreat_calfin_1972_2019.nc,2.4776266,3.2955744,0.8048297,0.020369187,6.069388,42.60646,-328.98788,237.52264
314,552100.9492687881,seasonal_calving_id_4_1900_2025.nc,0.0001398457018425688,MAR3.9_IPSL-CM5-MR_rcp85_ocean_1960-2100_v4.nc,MARv3.14-monthly-ERA5_1940_2023.nc,0.00026014772057533265,1.611466516368091,0.45300300274975597,1.1326776797883213,pism_g450m_frontretreat_calfin_1972_2019.nc,2.5310032,3.3202763,0.78908646,0.02169707,5.9145203,42.98943,-447.77924,300.41415
315,552100.9492687881,seasonal_calving_id_4_1900_2025.nc,0.0001398457018425688,MAR3.9_IPSL-CM5-MR_rcp85_ocean_1960-2100_v4.nc,MARv3.14-monthly-ERA5_1940_2023.nc,0.0002947912710160017,1.3018064515665173,0.45300300274975597,1.1326776797883213,pism_g450m_frontretreat_calfin_1972_2019.nc,2.7304785,3.3025534,0.64126205,0.019546585,10.403221,43.025986,-397.88843,290.1576
316,552100.9492687881,seasonal_calving_id_4_1900_2025.nc,0.0001398457018425688,MAR3.9_IPSL-CM5-MR_rcp85_ocean_1960-2100_v4.nc,MARv3.14-monthly-ERA5_1940_2023.nc,0.0002947912710160017,1.611466516368091,0.421632712893188,1.1326776797883213,pism_g450m_frontretreat_calfin_1972_2019.nc,2.586223,3.2298887,0.6602656,0.018331759,5.7701306,42.75523,-381.81335,132.74242
317,552100.9492687881,seasonal_calving_id_4_1900_2025.nc,0.0001398457018425688,MAR3.9_IPSL-CM5-MR_rcp85_ocean_1960-2100_v4.nc,MARv3.14-monthly-ERA5_1940_2023.nc,0.0002947912710160017,1.611466516368091,0.45300300274975597,1.1099635306745768,pism_g450m_frontretreat_calfin_1972_2019.nc,2.408721,3.3157442,0.7795849,0.016095018,6.922079,42.770626,-447.42505,160.4261
318,552100.9492687881,seasonal_calving_id_4_1900_2025.nc,0.0001398457018425688,MAR3.9_IPSL-CM5-MR_rcp85_ocean_1960-2100_v4.nc,MARv3.14-monthly-ERA5_1940_2023.nc,0.0002947912710160017,1.611466516368091,0.45300300274975597,1.1326776797883213,,2.3540142,3.204542,0.7319032,0.022940725,6.6513367,41.59982,-278.7514,370.68298
319,552100.9492687881,seasonal_calving_id_0_1900_2025.nc,0.0001240496126236394,MAR3.9_HadGEM2-ES_rcp85_ocean_1960-2100_v4.nc,HIRHAM5-monthly-ERA5_1975_2021.nc,0.00026014772057533265,1.3018064515665173,0.421632712893188,1.1099635306745768,,2.0895305,3.3354032,0.7929141,0.019503184,6.6793094,40.308807,-371.7317,180.98737
320,378107.3904596269,seasonal_calving_id_4_1900_2025.nc,0.0001240496126236394,MAR3.9_HadGEM2-ES_rcp85_ocean_1960-2100_v4.nc,HIRHAM5-monthly-ERA5_1975_2021.nc,0.00026014772057533265,1.3018064515665173,0.421632712893188,1.1099635306745768,,2.7640717,3.2986465,0.6459576,0.019507634,10.897676,41.841743,-213.37033,142.97678
321,378107.3904596269,seasonal_calving_id_0_1900_2025.nc,0.0001398457018425688,MAR3.9_HadGEM2-ES_rcp85_ocean_1960-2100_v4.nc,HIRHAM5-monthly-ERA5_1975_2021.nc,0.00026014772057533265,1.3018064515665173,0.421632712893188,1.1099635306745768,,2.5324917,3.2592735,0.8163968,0.015965661,5.9806604,42.597588,-332.2051,166.58054
322,378107.3904596269,seasonal_calving_id_0_1900_2025.nc,0.0001240496126236394,MAR3.9_IPSL-CM5-MR_rcp85_ocean_1960-2100_v4.nc,HIRHAM5-monthly-ERA5_1975_2021.nc,0.00026014772057533265,1.3018064515665173,0.421632712893188,1.1099635306745768,,2.5834076,3.3140388,0.8197,0.020249164,6.460976,43.882656,-306.68588,82.65049
323,378107.3904596269,seasonal_calving_id_0_1900_2025.nc,0.0001240496126236394,MAR3.9_HadGEM2-ES_rcp85_ocean_1960-2100_v4.nc,MARv3.14-monthly-ERA5_1940_2023.nc,0.00026014772057533265,1.3018064515665173,0.421632712893188,1.1099635306745768,,3.1808026,3.3017037,0.6422951,0.021954766,5.365046,43.553444,-390.7353,202.53992
324,378107.3904596269,seasonal_calving_id_0_1900_2025.nc,0.0001240496126236394,MAR3.9_HadGEM2-ES_rcp85_ocean_1960-2100_v4.nc,HIRHAM5-monthly-ERA5_1975_2021.nc,0.0002947912710160017,1.3018064515665173,0.421632712893188,1.1099635306745768,,2.4289849,3.3016317,0.7521494,0.019405741,7.6860123,41.504086,-331.6622,326.95383
325,378107.3904596269,seasonal_calving_id_0_1900_2025.nc,0.0001240496126236394,MAR3.9_HadGEM2-ES_rcp85_ocean_1960-2100_v4.nc,HIRHAM5-monthly-ERA5_1975_2021.nc,0.00026014772057533265,1.611466516368091,0.421632712893188,1.1099635306745768,,2.757677,3.320259,0.7140484,0.020380015,8.357638,42.92412,-330.6081,204.47285
326,378107.3904596269,seasonal_calving_id_0_1900_2025.nc,0.0001240496126236394,MAR3.9_HadGEM2-ES_rcp85_ocean_1960-2100_v4.nc,HIRHAM5-monthly-ERA5_1975_2021.nc,0.00026014772057533265,1.3018064515665173,0.45300300274975597,1.1099635306745768,,3.1188846,3.2752903,0.7329401,0.017653497,6.2845254,43.094955,-413.18454,252.7363
327,378107.3904596269,seasonal_calving_id_0_1900_2025.nc,0.0001240496126236394,MAR3.9_HadGEM2-ES_rcp85_ocean_1960-2100_v4.nc,HIRHAM5-monthly-ERA5_1975_2021.nc,0.00026014772057533265,1.3018064515665173,0.421632712893188,1.1326776797883213,,2.5974014,3.3071845,0.61035407,0.01843992,11.1107235,40.251663,-295.24805,258.81943
328,378107.3904596269,seasonal_calving_id_0_1900_2025.nc,0.0001240496126236394,MAR3.9_HadGEM2-ES_rcp85_ocean_1960-2100_v4.nc,HIRHAM5-monthly-ERA5_1975_2021.nc,0.00026014772057533265,1.3018064515665173,0.421632712893188,1.1099635306745768,pism_g450m_frontretreat_calfin_1972_2019.nc,2.4882896,3.2596328,0.8128525,0.023811169,6.9370136,42.015823,-285.04773,405.691
329,378107.3904596269,seasonal_calving_id_0_1900_2025.nc,0.0001240496126236394,MAR3.9_HadGEM2-ES_rcp85_ocean_1960-2100_v4.nc,HIRHAM5-monthly-ERA5_1975_2021.nc,0.00026014772057533265,1.3018064515665173,0.421632712893188,1.1099635306745768,,1.9785252,3.2864957,0.8580002,0.016062317,5.990285,42.523388,-347.1817,264.0357
330,493428.1660243869,seasonal_calving_id_1_1900_2025.nc,0.0001008192530600354,MAR3.9_CSIRO-Mk3.6_rcp85_ocean_1960-2100_v4.nc,RACMO2.3p2_ERA5_FGRN055_1940_2023.nc,0.0003485650307312608,1.0856260823085904,0.7710686088073999,1.5715392665937544,,2.2813857,3.2989917,0.7214638,0.017882336,6.852987,41.16826,-412.41666,327.3722
331,535286.2790226936,seasonal_calving_id_1_1900_2025.nc,0.0001008192530600354,MAR3.9_CSIRO-Mk3.6_rcp85_ocean_1960-2100_v4.nc,RACMO2.3p2_ERA5_FGRN055_1940_2023.nc,0.0003485650307312608,1.0856260823085904,0.7710686088073999,1.5715392665937544,,2.1907704,3.284701,0.7240557,0.01371064,5.891925,42.27894,-417.21136,92.93827
332,493428.1660243869,seasonal_calving_id_4_1900_2025.nc,0.0001008192530600354,MAR3.9_CSIRO-Mk3.6_rcp85_ocean_1960-2100_v4.nc,RACMO2.3p2_ERA5_FGRN055_1940_2023.nc,0.0003485650307312608,1.0856260823085904,0.7710686088073999,1.5715392665937544,,2.643116,3.2634237,0.64991754,0.019700091,9.680422,41.403637,-289.7706,292.82455
333,493428.1660243869,seasonal_calving_id_1_1900_2025.nc,9.312075446359813e-05,MAR3.9_CSIRO-Mk3.6_rcp85_ocean_1960-2100_v4.nc,RACMO2.3p2_ERA5_FGRN055_1940_2023.nc,0.0003485650307312608,1.0856260823085904,0.7710686088073999,1.5715392665937544,,2.0653772,3.3171651,0.7795363,0.017225703,7.2842565,40.404903,-441.74146,276.33347
334,493428.1660243869,seasonal_calving_id_1_1900_2025.nc,0.0001008192530600354,MAR3.9_CNRM-ESM2_ssp585_ocean_1960-2100_v4.nc,RACMO2.3p2_ERA5_FGRN055_1940_2023.nc,0.0003485650307312608,1.0856260823085904,0.7710686088073999,1.5715392665937544,,2.9539015,3.3285658,0.6886053,0.022296278,8.790477,41.89537,-199.7724,71.19409
335,493428.1660243869,seasonal_calving_id_1_1900_2025.nc,0.0001008192530600354,MAR3.9_CSIRO-Mk3.6_rcp85_ocean_1960-2100_v4.nc,RACMO2.3p2_ERA5_FGRN055_1940_2023.nc,0.0003485650307312608,1.0856260823085904,0.7710686088073999,1.5715392665937544,,2.3831983,3.3677518,0.6534734,0.017244982,8.789646,42.792885,-386.3409,143.58664
336,493428.1660243869,seasonal_calving_id_1_1900_2025.nc,0.0001008192530600354,MAR3.9_CSIRO-Mk3.6_rcp85_ocean_1960-2100_v4.nc,RACMO2.3p2_ERA5_FGRN055_1940_2023.nc,0.000302294340133667,1.0856260823085904,0.7710686088073999,1.5715392665937544,,2.434938,3.2966511,0.61627305,0.022976827,10.610361,41.015343,-376.1534,650.3443
337,493428.1660243869,seasonal_calving_id_1_1900_2025.nc,0.0001008192530600354,MAR3.9_CSIRO-Mk3.6_rcp85_ocean_1960-2100_v4.nc,RACMO2.3p2_ERA5_FGRN055_1940_2023.nc,0.0003485650307312608,1.4010815966874361,0.7710686088073999,1.5715392665937544,,2.1033475,3.295045,0.8569403,0.021094764,6.0178423,42.429344,-542.9418,653.2754
338,493428.1660243869,seasonal_calving_id_1_1900_2025.nc,0.0001008192530600354,MAR3.9_CSIRO-Mk3.6_rcp85_ocean_1960-2100_v4.nc,RACMO2.3p2_ERA5_FGRN055_1940_2023.nc,0.0003485650307312608,1.0856260823085904,0.6413508415222169,1.5715392665937544,,2.217269,3.3271115,0.5968082,0.014253094,7.483404,43.384922,-533.8149,178.19127
339,493428.1660243869,seasonal_calving_id_1_1900_2025.nc,0.0001008192530600354,MAR3.9_CSIRO-Mk3.6_rcp85_ocean_1960-2100_v4.nc,RACMO2.3p2_ERA5_FGRN055_1940_2023.nc,0.0003485650307312608,1.0856260823085904,0.7710686088073999,1.504407362267375,,2.1045156,3.3883607,0.70975894,0.014405776,13.692506,44.267685,-304.59308,128.80197
340,493428.1660243869,seasonal_calving_id_1_1900_2025.nc,0.0001008192530600354,MAR3.9_CSIRO-Mk3.6_rcp85_ocean_1960-2100_v4.nc,RACMO2.3p2_ERA5_FGRN055_1940_2023.nc,0.0003485650307312608,1.0856260823085904,0.7710686088073999,1.5715392665937544,pism_g450m_frontretreat_calfin_1972_2019.nc,2.5702574,3.3416622,0.78506625,0.017687755,5.181691,43.959854,-427.4391,223.31682
341,493428.1660243869,seasonal_calving_id_4_1900_2025.nc,9.312075446359813e-05,MAR3.9_CNRM-ESM2_ssp585_ocean_1960-2100_v4.nc,RACMO2.3p2_ERA5_FGRN055_1940_2023.nc,0.000302294340133667,1.4010815966874361,0.6413508415222169,1.504407362267375,pism_g450m_frontretreat_calfin_1972_2019.nc,2.5292547,3.2938197,0.7378531,0.01424517,7.1610265,41.88647,-466.23358,142.79808
342,535286.2790226936,seasonal_calving_id_1_1900_2025.nc,9.312075446359813e-05,MAR3.9_CNRM-ESM2_ssp585_ocean_1960-2100_v4.nc,RACMO2.3p2_ERA5_FGRN055_1940_2023.nc,0.000302294340133667,1.4010815966874361,0.6413508415222169,1.504407362267375,pism_g450m_frontretreat_calfin_1972_2019.nc,2.7235966,3.3901448,0.8398893,0.017203227,5.7009497,43.219654,-506.03076,115.210236
343,535286.2790226936,seasonal_calving_id_4_1900_2025.nc,0.0001008192530600354,MAR3.9_CNRM-ESM2_ssp585_ocean_1960-2100_v4.nc,RACMO2.3p2_ERA5_FGRN055_1940_2023.nc,0.000302294340133667,1.4010815966874361,0.6413508415222169,1.504407362267375,pism_g450m_frontretreat_calfin_1972_2019.nc,2.6163733,3.3455944,0.80321246,0.018759204,6.94574,43.203575,-408.06946,310.85648
344,535286.2790226936,seasonal_calving_id_4_1900_2025.nc,9.312075446359813e-05,MAR3.9_CSIRO-Mk3.6_rcp85_ocean_1960-2100_v4.nc,RACMO2.3p2_ERA5_FGRN055_1940_2023.nc,0.000302294340133667,1.4010815966874361,0.6413508415222169,1.504407362267375,pism_g450m_frontretreat_calfin_1972_2019.nc,2.2133505,3.3057287,0.5756019,0.014802587,6.4929523,43.594353,-555.2388,213.0649
345,535286.2790226936,seasonal_calving_id_4_1900_2025.nc,9.312075446359813e-05,MAR3.9_CNRM-ESM2_ssp585_ocean_1960-2100_v4.nc,RACMO2.3p2_ERA5_FGRN055_1940_2023.nc,0.000302294340133667,1.4010815966874361,0.6413508415222169,1.504407362267375,pism_g450m_frontretreat_calfin_1972_2019.nc,2.0412195,3.2922065,0.814068,0.013324769,9.002235,44.554688,-408.69818,237.5395
346,535286.2790226936,seasonal_calving_id_4_1900_2025.nc,9.312075446359813e-05,MAR3.9_CNRM-ESM2_ssp585_ocean_1960-2100_v4.nc,RACMO2.3p2_ERA5_FGRN055_1940_2023.nc,0.0003485650307312608,1.4010815966874361,0.6413508415222169,1.504407362267375,pism_g450m_frontretreat_calfin_1972_2019.nc,2.3568597,3.2798853,0.8547408,0.016766343,5.2958827,41.86326,-684.18384,516.8974
347,535286.2790226936,seasonal_calving_id_4_1900_2025.nc,9.312075446359813e-05,MAR3.9_CNRM-ESM2_ssp585_ocean_1960-2100_v4.nc,RACMO2.3p2_ERA5_FGRN055_1940_2023.nc,0.000302294340133667,1.0856260823085904,0.6413508415222169,1.504407362267375,pism_g450m_frontretreat_calfin_1972_2019.nc,1.9173987,3.285433,0.9009148,0.018661171,5.413087,42.14946,-396.20325,458.26956
348,535286.2790226936,seasonal_calving_id_4_1900_2025.nc,9.312075446359813e-05,MAR3.9_CNRM-ESM2_ssp585_ocean_1960-2100_v4.nc,RACMO2.3p2_ERA5_FGRN055_1940_2023.nc,0.000302294340133667,1.4010815966874361,0.7710686088073999,1.504407362267375,pism_g450m_frontretreat_calfin_1972_2019.nc,2.4833474,3.2079692,0.77730155,0.021610152,6.3882484,40.34029,-305.78043,373.34772
349,535286.2790226936,seasonal_calving_id_4_1900_2025.nc,9.312075446359813e-05,MAR3.9_CNRM-ESM2_ssp585_ocean_1960-2100_v4.nc,RACMO2.3p2_ERA5_FGRN055_1940_2023.nc,0.000302294340133667,1.4010815966874361,0.6413508415222169,1.5715392665937544,pism_g450m_frontretreat_calfin_1972_2019.nc,2.315981,3.2622669,0.69980556,0.024389118,5.5019526,43.497704,-342.3763,552.83734
350,535286.2790226936,seasonal_calving_id_4_1900_2025.nc,9.312075446359813e-05,MAR3.9_CNRM-ESM2_ssp585_ocean_1960-2100_v4.nc,RACMO2.3p2_ERA5_FGRN055_1940_2023.nc,0.000302294340133667,1.4010815966874361,0.6413508415222169,1.504407362267375,,2.1815305,3.3229654,0.7225513,0.013802844,6.301389,42.82585,-553.47235,232.73802
351,535286.2790226936,seasonal_calving_id_4_1900_2025.nc,9.312075446359813e-05,MAR3.9_CNRM-ESM2_ssp585_ocean_1960-2100_v4.nc,RACMO2.3p2_ERA5_FGRN055_1940_2023.nc,0.000302294340133667,1.4010815966874361,0.6413508415222169,1.504407362267375,pism_g450m_frontretreat_calfin_1972_2019.nc,2.0860136,3.212288,0.66582775,0.0154604735,7.137234,42.099392,-306.05396,131.29425
