id,calving.vonmises_calving.sigma_max,ocean.th.gamma_T,ocean_file,climate_file,frontal_melt.routing.parameter_a,frontal_melt.routing.parameter_b,frontal_melt.routing.power_alpha,frontal_melt.routing.power_beta,prescribed_retreat_file,stress_balance.sia.enhancement_factor,stress_balance.ssa.Glen_exponent,basal_resistance.pseudo_plastic.q,basal_yield_stress.mohr_coulomb.till_effective_fraction_overburden,basal_yield_stress.mohr_coulomb.topg_to_phi.phi_min,basal_yield_stress.mohr_coulomb.topg_to_phi.phi_max,basal_yield_stress.mohr_coulomb.topg_to_phi.topg_min,basal_yield_stress.mohr_coulomb.topg_to_phi.topg_max
0,718016.1147401968,0.00013404605379107253,MAR3.9_CNRM-ESM2_ssp585_ocean_1960-2100_v4.nc,MARv3.14-monthly-ERA5_1940_2023.nc,0.00033499619677198944,1.0917600362593816,0.3590218125057649,1.642758533037079,pism_g450m_frontretreat_calfin_1972_2019.nc,2.2621584,3.3357887,0.8074952,0.014673254,8.961181,44.686466,-312.50012,220.87704
1,599133.4561905103,0.0001176414301390348,MAR3.9_ACCESS1-3_rcp85_ocean_1960-2100_v4.nc,MARv3.14-monthly-ERA5_1940_2023.nc,0.0003007748823736235,1.6990407139311514,0.37428982440077785,1.304057066164452,pism_g450m_frontretreat_calfin_1972_2019.nc,2.7164664,3.2902627,0.6465241,0.018323373,9.054141,43.240192,-331.87802,274.0048
2,308266.44502370124,0.00014246904566912787,MAR3.9_NorESM1-M_rcp85_ocean_1960-2100_v4.nc,MARv3.14-monthly-ERA5_1940_2023.nc,0.00034335424647873546,1.5422978392424573,0.42636719775151766,1.7039800825433158,pism_g450m_frontretreat_calfin_1972_2019.nc,2.1697352,3.2843962,0.705458,0.025246784,5.7246923,41.11263,-330.06906,566.39734
3,654653.18482788,0.00012218179487915535,MAR3.9_CSIRO-Mk3.6_rcp85_ocean_1960-2100_v4.nc,MARv3.14-monthly-ERA5_1940_2023.nc,0.0002892973445749209,1.3516362691707278,0.7755580464299539,1.144302835027269,,3.392918,3.3216896,0.74175936,0.018139072,7.858464,43.57508,-360.21506,157.43283
4,409518.6491126141,8.38718752742969e-05,MAR3.9_MIROC-ESM-CHEM_rcp26_ocean_1960-2100_v4.nc,HIRHAM5-monthly-ERA5_1975_2021.nc,0.00030754165344779684,1.2811313466781837,0.5651103028325908,1.3432457748209974,,3.1673665,3.2555838,0.7280446,0.022457588,7.193123,43.652184,-215.89926,316.49246
5,338009.5633942983,0.00010814476654843469,MAR3.9_ACCESS1-3_rcp85_ocean_1960-2100_v4.nc,HIRHAM5-monthly-ERA5_1975_2021.nc,0.0002506913773566046,1.2186897582828968,0.5505195950986004,1.3752412201978776,pism_g450m_frontretreat_calfin_1972_2019.nc,2.2192874,3.2973568,0.7215859,0.017265484,8.0320015,40.770084,-430.50372,300.34598
6,301776.9602174609,0.00012752930842379814,MAR3.9_IPSL-CM5-MR_rcp85_ocean_1960-2100_v4.nc,HIRHAM5-monthly-ERA5_1975_2021.nc,0.00029275514958069447,1.1433198101813768,0.8469041670513338,1.6497658768820422,,2.4629633,3.3033175,0.70115685,0.021979328,5.3893986,40.137863,-474.96338,346.1227
7,666720.0830678343,0.000123774400553858,MAR3.9_CNRM-CM6_ssp126_ocean_1960-2100_v4.nc,RACMO2.3p2_ERA5_FGRN055_1940_2023.nc,0.00024163875126560804,1.3991680578451362,0.6662679952416066,1.4286531849158277,,3.253281,3.3487582,0.79570687,0.022440396,7.5477242,44.072536,-279.7548,313.03253
8,462017.1820240931,0.00013580332084591848,MAR3.9_MIROC-ESM-CHEM_rcp26_ocean_1960-2100_v4.nc,HIRHAM5-monthly-ERA5_1975_2021.nc,0.00032879014955029096,1.2364232475743786,0.519152438362533,1.244066269125359,,2.6197596,3.3310316,0.7621639,0.018537806,6.556362,43.701897,-288.97305,159.9263
9,626909.725972109,0.0001293804072982503,MAR3.9_IPSL-CM5-MR_rcp85_ocean_1960-2100_v4.nc,MARv3.14-monthly-ERA5_1940_2023.nc,0.00025369570768113533,1.1348720095433023,0.46961370159042876,1.5179771213270292,,3.0759413,3.2038891,0.52267325,0.028899966,6.7290826,44.15008,-339.48257,290.25433
10,545726.0332928502,0.0001248046912308761,MAR3.9_MIROC-ESM-CHEM_rcp26_ocean_1960-2100_v4.nc,MARv3.14-monthly-ERA5_1940_2023.nc,0.0002899535686087847,1.6809303436642713,0.8405965933211816,1.5572988433857666,,2.9569376,3.2705693,0.60861325,0.02473332,6.533235,41.776745,-379.50995,415.66687
11,652121.1385709925,0.0001465127971518437,MAR3.9_UKESM1-CM6_ssp585_ocean_1960-2100_v4.nc,RACMO2.3p2_ERA5_FGRN055_1940_2023.nc,0.0003311993049779965,1.2373672743675785,0.5209615922009764,1.3779771562030794,pism_g450m_frontretreat_calfin_1972_2019.nc,2.8414137,3.3286662,0.63325346,0.023398636,10.567346,41.482597,-324.4161,255.76831
12,695438.3893077879,0.00013967586327027148,MAR3.9_CSIRO-Mk3.6_rcp85_ocean_1960-2100_v4.nc,RACMO2.3p2_ERA5_FGRN055_1940_2023.nc,0.0002633327590956716,1.3593034914147026,0.41123383152586124,1.2333665915808403,,2.2822475,3.2902505,0.7447889,0.017875092,6.3548837,41.26796,-333.47595,171.17903
13,584078.7386964214,0.00013217665772651037,MAR3.9_IPSL-CM5-MR_rcp85_ocean_1960-2100_v4.nc,RACMO2.3p2_ERA5_FGRN055_1940_2023.nc,0.0002937559684520561,1.6303858078992643,0.7615480794585874,1.2022150984483215,,2.4808018,3.3076537,0.8604445,0.020033512,6.5194163,40.47906,-273.65616,285.23553
14,602248.8724981406,0.00014606535906119215,MAR3.9_CNRM-ESM2_ssp585_ocean_1960-2100_v4.nc,HIRHAM5-monthly-ERA5_1975_2021.nc,0.00028488499321298577,1.1662743935677855,0.3908704011488944,1.612228884216702,,2.68974,3.3183398,0.8453544,0.01910438,5.8241177,40.389877,-312.0336,217.78905
15,542965.3206203631,0.00011873015515183613,MAR3.9_HadGEM2-ES_rcp85_ocean_1960-2100_v4.nc,MARv3.14-monthly-ERA5_1940_2023.nc,0.00028677316501182087,1.2523218577884043,0.38952526413488436,1.1093033153174692,,2.65348,3.3013873,0.69073874,0.021993272,6.6944566,43.116726,-442.77274,509.15884
16,609505.0254737099,0.00010723836362935339,MAR3.9_IPSL-CM5-MR_rcp85_ocean_1960-2100_v4.nc,MARv3.14-monthly-ERA5_1940_2023.nc,0.0002653613844411624,1.5484942149628385,0.4857810463875374,1.7571566801737069,,2.42457,3.3303485,0.87103826,0.01706865,12.570537,43.605972,-216.32617,125.487755
17,469751.5321621798,0.00011907910188136118,MAR3.9_UKESM1-CM6_ssp585_ocean_1960-2100_v4.nc,MARv3.14-monthly-ERA5_1940_2023.nc,0.00034407623866891993,1.6889898159415668,0.6851332729443055,1.5017987625677127,pism_g450m_frontretreat_calfin_1972_2019.nc,2.0836127,3.3072124,0.5978768,0.016076984,8.906322,43.043964,-519.7434,340.52084
18,665165.2872013707,8.110396640867176e-05,MAR3.9_ACCESS1-3_rcp85_ocean_1960-2100_v4.nc,HIRHAM5-monthly-ERA5_1975_2021.nc,0.0003250693460390383,1.2788366426229207,0.464771786502999,1.6332813295182516,pism_g450m_frontretreat_calfin_1972_2019.nc,2.6512353,3.3199747,0.81843174,0.017776595,6.333105,42.45584,-364.82593,248.23355
19,664713.8290887976,0.0001171860161919408,MAR3.9_MIROC-ESM-CHEM_rcp26_ocean_1960-2100_v4.nc,RACMO2.3p2_ERA5_FGRN055_1940_2023.nc,0.00035705050537874903,1.6857428986286198,0.3035284627685465,1.783770652937959,pism_g450m_frontretreat_calfin_1972_2019.nc,2.7503061,3.3574874,0.8891448,0.020167535,6.1169286,44.579075,-578.83856,576.7525
20,761623.7178382445,0.00012557930363401212,MAR3.9_CSIRO-Mk3.6_rcp85_ocean_1960-2100_v4.nc,RACMO2.3p2_ERA5_FGRN055_1940_2023.nc,0.0002727442096213669,1.0338552439891344,0.5161506818441326,1.3208316943631337,pism_g450m_frontretreat_calfin_1972_2019.nc,2.4359722,3.2896488,0.6175495,0.015921,5.7500687,43.790745,-509.77124,137.17651
21,564639.9992033956,8.885210704159357e-05,MAR3.9_CNRM-CM6_ssp126_ocean_1960-2100_v4.nc,MARv3.14-monthly-ERA5_1940_2023.nc,0.00030353148608243234,1.4827414475286487,0.39397809849999266,1.3397785875372452,,2.713018,3.3098683,0.63988936,0.017992627,6.0986433,41.55574,-542.48096,326.11896
22,759864.7116846335,0.0001261701112331931,MAR3.9_CSIRO-Mk3.6_rcp85_ocean_1960-2100_v4.nc,MARv3.14-monthly-ERA5_1940_2023.nc,0.0003408873311442548,1.268293393685307,0.5630849928251664,1.3216349681056268,pism_g450m_frontretreat_calfin_1972_2019.nc,2.78479,3.3523781,0.8026344,0.018111965,8.6202545,42.1653,-394.95557,191.03786
23,799812.0944773542,0.0001012493827286758,MAR3.9_MIROC-ESM-CHEM_rcp26_ocean_1960-2100_v4.nc,RACMO2.3p2_ERA5_FGRN055_1940_2023.nc,0.000347674440123238,1.082859137740316,0.5416051544756438,1.5384410308506968,pism_g450m_frontretreat_calfin_1972_2019.nc,2.8445559,3.3242276,0.6754498,0.020744262,5.9336295,42.16716,-363.22653,79.19221
24,303168.96472162835,0.00012259409373429432,MAR3.9_HadGEM2-ES_rcp85_ocean_1960-2100_v4.nc,MARv3.14-monthly-ERA5_1940_2023.nc,0.00028186673002374575,1.4123223277702592,0.6823948469105108,1.435758554976966,,2.5406654,3.2804275,0.8116945,0.018775983,8.469023,44.543465,-310.69992,145.01491
25,398073.1711509156,0.0001317069504915698,MAR3.9_ACCESS1-3_rcp85_ocean_1960-2100_v4.nc,HIRHAM5-monthly-ERA5_1975_2021.nc,0.0003496414270642762,1.1687912411302435,0.3288338426257785,1.4491640711277785,pism_g450m_frontretreat_calfin_1972_2019.nc,1.8692689,3.341628,0.8335164,0.015387023,8.670367,43.16943,-354.50024,239.8175
26,443662.79096430645,0.00013614522142471028,MAR3.9_CSIRO-Mk3.6_rcp85_ocean_1960-2100_v4.nc,MARv3.14-monthly-ERA5_1940_2023.nc,0.0002734423725044476,1.0549047436896262,0.7472752492245028,1.6582895209376831,,3.2973948,3.3337955,0.78959966,0.022254849,7.656312,44.353157,-211.14113,146.00497
27,693719.2108144385,0.00012303996800514032,MAR3.9_HadGEM2-ES_rcp85_ocean_1960-2100_v4.nc,MARv3.14-monthly-ERA5_1940_2023.nc,0.0002494625526749396,1.4842050940127058,0.5656578948912399,1.2460649715176253,pism_g450m_frontretreat_calfin_1972_2019.nc,2.7506928,3.3268065,0.8216367,0.024358386,6.9303327,43.13062,-289.693,405.7345
28,592896.9189016155,8.146534302632862e-05,MAR3.9_IPSL-CM5-MR_rcp85_ocean_1960-2100_v4.nc,HIRHAM5-monthly-ERA5_1975_2021.nc,0.00030669434227465994,1.224809345677397,0.5663577431348188,1.6804559000569843,pism_g450m_frontretreat_calfin_1972_2019.nc,2.1866593,3.3672414,0.76775116,0.014026039,6.4668427,42.30765,-620.1376,264.34396
29,576009.9224668924,0.000144669204021517,MAR3.9_ACCESS1-3_rcp85_ocean_1960-2100_v4.nc,RACMO2.3p2_ERA5_FGRN055_1940_2023.nc,0.0003049243904567229,1.4659205348382547,0.35723428519976963,1.1276381499089072,pism_g450m_frontretreat_calfin_1972_2019.nc,2.4701135,3.3148367,0.86430216,0.021685142,6.7766285,44.311344,-282.47787,243.05348
30,714066.8304969441,8.124540672152782e-05,MAR3.9_CNRM-CM6_ssp126_ocean_1960-2100_v4.nc,RACMO2.3p2_ERA5_FGRN055_1940_2023.nc,0.0002699406291407222,1.5616303233351507,0.6274795142516125,1.4811524505845794,pism_g450m_frontretreat_calfin_1972_2019.nc,2.475157,3.3066325,0.6995707,0.023539301,6.323664,40.164715,-295.39468,322.47565
31,518282.97598276613,0.00014659834606988147,MAR3.9_CSIRO-Mk3.6_rcp85_ocean_1960-2100_v4.nc,HIRHAM5-monthly-ERA5_1975_2021.nc,0.0003482835338720284,1.6798306347455596,0.6220071450530602,1.263966158849413,pism_g450m_frontretreat_calfin_1972_2019.nc,2.023224,3.3314774,0.84622264,0.01614107,6.4945054,44.752625,-488.89053,189.54042
32,333236.6466789651,8.902294712525672e-05,MAR3.9_CNRM-ESM2_ssp585_ocean_1960-2100_v4.nc,RACMO2.3p2_ERA5_FGRN055_1940_2023.nc,0.000304763174116169,1.1059819271530213,0.6117622274741363,1.3201693249629385,,2.7164512,3.3697467,0.8896313,0.020113302,10.443411,42.132458,-186.60349,194.74129
33,689098.9024661863,0.00012872575614189885,MAR3.9_UKESM1-CM6_ssp585_ocean_1960-2100_v4.nc,HIRHAM5-monthly-ERA5_1975_2021.nc,0.0003418519646924144,1.6387846474258314,0.8163750061560586,1.6639601268070203,pism_g450m_frontretreat_calfin_1972_2019.nc,2.8948658,3.2878964,0.68382347,0.02304967,6.3305025,42.542458,-446.31577,545.66095
34,747696.3101696741,0.0001422481476612432,MAR3.9_CNRM-ESM2_ssp585_ocean_1960-2100_v4.nc,MARv3.14-monthly-ERA5_1940_2023.nc,0.0002676377636211671,1.395721796163362,0.49711537529888494,1.141989149579774,pism_g450m_frontretreat_calfin_1972_2019.nc,2.4936297,3.3059034,0.82859963,0.01818489,5.236201,41.349113,-407.7335,252.87363
35,538629.5786335717,7.679143193289898e-05,MAR3.9_ACCESS1-3_rcp85_ocean_1960-2100_v4.nc,RACMO2.3p2_ERA5_FGRN055_1940_2023.nc,0.00028049007952967255,1.2325182282909437,0.8440802568555874,1.6178346861205903,,2.757914,3.2658439,0.5594912,0.0203637,8.998033,42.56571,-343.8152,174.70987
36,698597.1687571155,0.00014425677577484586,MAR3.9_CNRM-CM6_ssp126_ocean_1960-2100_v4.nc,RACMO2.3p2_ERA5_FGRN055_1940_2023.nc,0.0003219917634711201,1.6633033337510301,0.6744447913537761,1.4575846865082067,,2.265754,3.3260617,0.82852995,0.014913899,8.265121,44.327457,-537.98865,336.99988
37,419246.1527615577,9.982565314356208e-05,MAR3.9_MIROC-ESM-CHEM_rcp26_ocean_1960-2100_v4.nc,RACMO2.3p2_ERA5_FGRN055_1940_2023.nc,0.0002703606492698592,1.635695190148992,0.6080868235802263,1.763076124353193,,2.0894089,3.3830667,0.79100996,0.017582439,6.0160055,40.23972,-442.02203,248.34975
38,393046.03849432286,0.00014010420157871547,MAR3.9_ACCESS1-3_rcp85_ocean_1960-2100_v4.nc,HIRHAM5-monthly-ERA5_1975_2021.nc,0.0003539732317985378,1.4241197429210586,0.3133236498295998,1.674740532602323,pism_g450m_frontretreat_calfin_1972_2019.nc,2.9366505,3.2696023,0.6143575,0.021712825,7.7454276,42.734898,-281.43054,165.16534
39,729756.9560920959,9.57681962528223e-05,MAR3.9_CNRM-CM6_ssp126_ocean_1960-2100_v4.nc,HIRHAM5-monthly-ERA5_1975_2021.nc,0.00025767188189696453,1.157419168646588,0.6656372159534676,1.6462868359353975,pism_g450m_frontretreat_calfin_1972_2019.nc,1.8615344,3.2902167,0.772404,0.014294615,6.766198,41.555702,-369.43832,58.57411
40,498552.75102807186,7.868110064442303e-05,MAR3.9_IPSL-CM5-MR_rcp85_ocean_1960-2100_v4.nc,RACMO2.3p2_ERA5_FGRN055_1940_2023.nc,0.0002678774711869577,1.5254397794975225,0.6930659358916476,1.7642069157115408,pism_g450m_frontretreat_calfin_1972_2019.nc,2.6585531,3.2907863,0.6475321,0.016282765,10.427615,43.64663,-404.97604,256.79367
41,671348.1896888316,8.402076261806127e-05,MAR3.9_CNRM-CM6_ssp126_ocean_1960-2100_v4.nc,MARv3.14-monthly-ERA5_1940_2023.nc,0.00030047658696834653,1.4360831574563266,0.43822955680196596,1.6937356962120822,pism_g450m_frontretreat_calfin_1972_2019.nc,3.3530662,3.3097646,0.6229055,0.01777152,8.262393,44.05948,-356.60138,151.43285
42,626664.0318730625,0.0001325845670235525,MAR3.9_HadGEM2-ES_rcp85_ocean_1960-2100_v4.nc,HIRHAM5-monthly-ERA5_1975_2021.nc,0.000345526266942155,1.4304594221838074,0.7784026722687243,1.2403618850079305,pism_g450m_frontretreat_calfin_1972_2019.nc,2.7994943,3.3254092,0.59373313,0.017802443,7.711745,41.937428,-650.67285,432.93564
43,546665.036634579,0.00010604103438010873,MAR3.9_CSIRO-Mk3.6_rcp85_ocean_1960-2100_v4.nc,HIRHAM5-monthly-ERA5_1975_2021.nc,0.0002976146786323739,1.3298271864423943,0.6268950134470566,1.1344931505456872,,2.2704673,3.3117414,0.88956076,0.01235625,7.4203887,42.929363,-465.01736,111.62291
44,572709.3918431727,0.00010299337928638044,MAR3.9_CNRM-CM6_ssp126_ocean_1960-2100_v4.nc,MARv3.14-monthly-ERA5_1940_2023.nc,0.0002628048106563801,1.636963730965993,0.33359554738763986,1.598048042480804,,2.29786,3.3141882,0.9223821,0.018618062,5.075314,42.196384,-264.57367,161.97055
45,359696.6613862644,0.0001467338188140673,MAR3.9_CNRM-CM6_ssp126_ocean_1960-2100_v4.nc,MARv3.14-monthly-ERA5_1940_2023.nc,0.0002895332978918642,1.393972307498795,0.7201679896676882,1.1357658681883518,pism_g450m_frontretreat_calfin_1972_2019.nc,2.7865207,3.3416214,0.89097065,0.023029957,5.1553617,44.218292,-210.66545,203.17271
46,455963.54086883843,0.00014023576946214087,MAR3.9_HadGEM2-ES_rcp85_ocean_1960-2100_v4.nc,MARv3.14-monthly-ERA5_1940_2023.nc,0.0002852647847553329,1.2310759798769155,0.8080714702181453,1.5359999136204436,,2.4443493,3.279612,0.68558747,0.014551892,8.319243,43.08366,-463.17947,260.92563
47,638954.071798275,8.058697561810088e-05,MAR3.9_NorESM1-M_rcp85_ocean_1960-2100_v4.nc,RACMO2.3p2_ERA5_FGRN055_1940_2023.nc,0.0003451019492916216,1.1384886634524976,0.8006806175880641,1.6341255063913567,,2.1129456,3.2948472,0.61413765,0.016788637,7.334407,41.72195,-468.02686,337.35742
48,334057.48785509286,0.00012100677341604344,MAR3.9_CSIRO-Mk3.6_rcp85_ocean_1960-2100_v4.nc,HIRHAM5-monthly-ERA5_1975_2021.nc,0.00029815700641975943,1.468985709533793,0.429202616598631,1.5348672903399718,pism_g450m_frontretreat_calfin_1972_2019.nc,3.5713768,3.296719,0.6796156,0.023629881,6.9124365,40.76689,-290.11926,178.10947
49,316818.2713886353,0.00011115988801806834,MAR3.9_CNRM-CM6_ssp126_ocean_1960-2100_v4.nc,MARv3.14-monthly-ERA5_1940_2023.nc,0.0002800613220086851,1.5528984659638811,0.511202463131986,1.2257617561782737,pism_g450m_frontretreat_calfin_1972_2019.nc,2.6334546,3.3727732,0.7488177,0.021554641,6.1280375,44.535435,-561.5102,926.02496
50,403222.8177358904,0.0001032333219940568,MAR3.9_IPSL-CM5-MR_rcp85_ocean_1960-2100_v4.nc,HIRHAM5-monthly-ERA5_1975_2021.nc,0.0003410046623571636,1.1356369912309827,0.3525347554961596,1.509642605239459,pism_g450m_frontretreat_calfin_1972_2019.nc,2.8849084,3.3893945,0.8116132,0.0178766,7.4414887,44.727615,-377.98898,134.68503
51,487811.24049527285,0.00010836114181789943,MAR3.9_CNRM-ESM2_ssp585_ocean_1960-2100_v4.nc,MARv3.14-monthly-ERA5_1940_2023.nc,0.00027185580446963413,1.2359465304763733,0.546022120132005,1.7513933785473215,,2.4880302,3.3190465,0.8362057,0.016655065,9.596021,43.3641,-306.50546,170.43423
52,525565.760874507,9.961137826677757e-05,MAR3.9_NorESM1-M_rcp85_ocean_1960-2100_v4.nc,RACMO2.3p2_ERA5_FGRN055_1940_2023.nc,0.00026443024001155286,1.3966485341379402,0.6351222749532996,1.2068309868337026,pism_g450m_frontretreat_calfin_1972_2019.nc,2.3448513,3.3150127,0.9193121,0.015130435,5.3123603,41.450874,-383.2635,122.526405
53,519982.0600672278,0.000141516988898864,MAR3.9_ACCESS1-3_rcp85_ocean_1960-2100_v4.nc,MARv3.14-monthly-ERA5_1940_2023.nc,0.0003551993870316047,1.2666870188839447,0.6403601644499729,1.4843722782097384,,2.6912673,3.2948835,0.8128053,0.022433091,5.498067,41.991795,-273.72226,178.95862
54,640779.5831287235,0.0001484525502747499,MAR3.9_CNRM-ESM2_ssp585_ocean_1960-2100_v4.nc,HIRHAM5-monthly-ERA5_1975_2021.nc,0.0003137011599260648,1.3950998166538515,0.6841128320596626,1.1806770814239411,,2.5755804,3.3248112,0.71620226,0.018154727,9.798286,41.409428,-432.8649,433.18704
55,463049.9990388887,0.00013042207110510926,MAR3.9_HadGEM2-ES_rcp85_ocean_1960-2100_v4.nc,MARv3.14-monthly-ERA5_1940_2023.nc,0.0002585152788291281,1.1048296159085538,0.41503453469198875,1.1893077492540907,,2.7974155,3.2968807,0.55638516,0.019479562,7.400152,40.75,-476.96753,265.74463
56,740772.3868615918,0.00012321619838649467,MAR3.9_HadGEM2-ES_rcp85_ocean_1960-2100_v4.nc,MARv3.14-monthly-ERA5_1940_2023.nc,0.00027995206122756255,1.6494316304229413,0.3371010540269911,1.177410769709537,,2.5875072,3.2642045,0.6208353,0.01804723,8.364329,42.766,-414.22958,148.55794
57,456807.2436330853,8.236571464910297e-05,MAR3.9_ACCESS1-3_rcp85_ocean_1960-2100_v4.nc,RACMO2.3p2_ERA5_FGRN055_1940_2023.nc,0.0002605575099786982,1.2051835736877936,0.7767622442416391,1.5457657934384743,pism_g450m_frontretreat_calfin_1972_2019.nc,2.258435,3.3572102,0.7432133,0.01865891,7.480292,41.83148,-413.28485,258.1228
58,367689.8407244694,0.00011730342943730285,MAR3.9_CSIRO-Mk3.6_rcp85_ocean_1960-2100_v4.nc,RACMO2.3p2_ERA5_FGRN055_1940_2023.nc,0.0002934099198003025,1.5968182546374639,0.6134443409586323,1.4222068546974456,,2.6879961,3.3513803,0.86669046,0.016878359,6.663363,41.84156,-328.9274,90.83031
59,319050.8759826371,9.827390532594657e-05,MAR3.9_MIROC-ESM-CHEM_rcp26_ocean_1960-2100_v4.nc,HIRHAM5-monthly-ERA5_1975_2021.nc,0.0003277409803823724,1.5761084590074979,0.44892216355020775,1.2107124104022717,pism_g450m_frontretreat_calfin_1972_2019.nc,2.8250206,3.3066535,0.61340564,0.0148884095,5.3937407,43.74639,-596.54956,316.96283
60,590765.8766772777,0.00011598988359673977,MAR3.9_CNRM-CM6_ssp126_ocean_1960-2100_v4.nc,MARv3.14-monthly-ERA5_1940_2023.nc,0.0003507965248051075,1.6922034365131,0.453964322083685,1.1435779261458259,,2.641785,3.2940998,0.6961296,0.019107955,7.9816995,41.209442,-258.52774,131.98209
61,536723.2849710153,0.00012589242766326752,MAR3.9_IPSL-CM5-MR_rcp85_ocean_1960-2100_v4.nc,HIRHAM5-monthly-ERA5_1975_2021.nc,0.00032020505584665006,1.6654631045600927,0.5600736784158871,1.3460986700653428,,2.5553615,3.3113358,0.7544788,0.015564043,7.0115466,42.989426,-375.65945,230.44548
62,537362.7741227994,9.429821108599235e-05,MAR3.9_NorESM1-M_rcp85_ocean_1960-2100_v4.nc,MARv3.14-monthly-ERA5_1940_2023.nc,0.00034987419390455595,1.3709565847282563,0.7333920509712746,1.5756945479068427,,2.5973713,3.2684705,0.6268112,0.020404276,11.38038,42.140415,-327.38733,306.9531
63,701538.1545923639,0.00011699634827179713,MAR3.9_MIROC-ESM-CHEM_rcp26_ocean_1960-2100_v4.nc,RACMO2.3p2_ERA5_FGRN055_1940_2023.nc,0.0002837530563484163,1.3346267841154198,0.4699154636824203,1.2503871652372478,pism_g450m_frontretreat_calfin_1972_2019.nc,3.0756168,3.3283179,0.66378534,0.022302387,10.079406,40.491806,-343.95908,236.83873
64,410441.7227196093,8.343944601708e-05,MAR3.9_UKESM1-CM6_ssp585_ocean_1960-2100_v4.nc,RACMO2.3p2_ERA5_FGRN055_1940_2023.nc,0.0002610603260396109,1.1322230241630031,0.6046772157046965,1.4903908750336319,,2.3629866,3.3472962,0.84227335,0.015343083,7.2185597,44.07647,-407.41998,277.02606
65,393699.02248756425,0.00011727093601892042,MAR3.9_CNRM-ESM2_ssp585_ocean_1960-2100_v4.nc,HIRHAM5-monthly-ERA5_1975_2021.nc,0.0003461617674867867,1.2116739989846117,0.8252523484016774,1.1476616423581898,,2.0441272,3.2718601,0.86246514,0.014186703,7.5180693,42.61895,-315.0752,203.36761
66,478377.0109522005,0.00010419625625000505,MAR3.9_MIROC-ESM-CHEM_rcp26_ocean_1960-2100_v4.nc,MARv3.14-monthly-ERA5_1940_2023.nc,0.00030725507432344506,1.6190780530762794,0.4451364397224376,1.7280203564169172,pism_g450m_frontretreat_calfin_1972_2019.nc,2.5324326,3.2948287,0.6245987,0.01634409,8.795009,42.766914,-320.19525,228.40842
67,356836.9012451548,9.588350979210827e-05,MAR3.9_HadGEM2-ES_rcp85_ocean_1960-2100_v4.nc,HIRHAM5-monthly-ERA5_1975_2021.nc,0.00033754614597020704,1.1237868958650832,0.6213555167782762,1.578496375371544,,3.0555248,3.301527,0.7556327,0.02039556,7.6703367,40.798885,-233.21178,70.054886
68,788546.7560743538,0.00010537612925325251,MAR3.9_MIROC-ESM-CHEM_rcp26_ocean_1960-2100_v4.nc,RACMO2.3p2_ERA5_FGRN055_1940_2023.nc,0.0002684407510207417,1.6712389473277771,0.7718132817045781,1.6059172547579788,,3.0892682,3.255704,0.8111439,0.019464882,9.531807,43.403942,-243.05107,63.12634
69,448856.6762543479,8.086790175052037e-05,MAR3.9_ACCESS1-3_rcp85_ocean_1960-2100_v4.nc,HIRHAM5-monthly-ERA5_1975_2021.nc,0.00026978535783271846,1.289796090172767,0.6951733232330743,1.1816881606011593,,2.9019852,3.346731,0.7209853,0.022795144,7.73158,43.705177,-260.43002,338.23914
70,563025.7360625262,8.616700815691537e-05,MAR3.9_CSIRO-Mk3.6_rcp85_ocean_1960-2100_v4.nc,MARv3.14-monthly-ERA5_1940_2023.nc,0.00035302123620345265,1.4911068146557847,0.4784050971182828,1.555562974913312,,3.0110726,3.3002594,0.7899403,0.017180784,8.129067,44.208687,-291.6313,87.520874
71,595967.4278306069,8.802531688007632e-05,MAR3.9_ACCESS1-3_rcp85_ocean_1960-2100_v4.nc,HIRHAM5-monthly-ERA5_1975_2021.nc,0.00027854847062121056,1.4052357388797285,0.6542766863359737,1.1760136878306744,,2.5013704,3.3573735,0.86385435,0.013856587,6.802523,44.1983,-430.15594,184.77258
72,435008.11984378274,0.0001450513214811924,MAR3.9_MIROC-ESM-CHEM_rcp26_ocean_1960-2100_v4.nc,MARv3.14-monthly-ERA5_1940_2023.nc,0.00030123379653994135,1.6720607408841925,0.7892237172106754,1.3954839318412289,pism_g450m_frontretreat_calfin_1972_2019.nc,3.3097115,3.28014,0.6777555,0.023624904,6.3078523,43.588028,-434.3818,294.3697
73,793947.8181226754,0.00011557884212082896,MAR3.9_ACCESS1-3_rcp85_ocean_1960-2100_v4.nc,RACMO2.3p2_ERA5_FGRN055_1940_2023.nc,0.0003458183530106142,1.2066576524334303,0.358198657708259,1.550032330229501,,2.549517,3.2962294,0.852517,0.0155983195,5.105266,43.841625,-383.55957,259.42712
74,624885.4911606719,0.00013919754667640488,MAR3.9_MIROC-ESM-CHEM_rcp26_ocean_1960-2100_v4.nc,RACMO2.3p2_ERA5_FGRN055_1940_2023.nc,0.00029180580148612266,1.222884575604691,0.5095789862223549,1.489065002039329,,1.8464875,3.288591,0.88640976,0.015553592,5.6191173,42.242645,-325.19348,214.42914
75,395122.4382104997,8.825887835226295e-05,MAR3.9_NorESM1-M_rcp85_ocean_1960-2100_v4.nc,RACMO2.3p2_ERA5_FGRN055_1940_2023.nc,0.000313473563878914,1.6157684752002737,0.5345869600441837,1.1569223859927962,,2.805233,3.3308694,0.6968705,0.02555539,9.4848385,44.329678,-407.2383,667.72144
76,771131.8858419084,0.00012906534694935421,MAR3.9_CSIRO-Mk3.6_rcp85_ocean_1960-2100_v4.nc,HIRHAM5-monthly-ERA5_1975_2021.nc,0.00032808598000537816,1.4485010546723691,0.682995442416428,1.5521513393317665,,2.82792,3.2803373,0.673211,0.018324394,5.207287,43.639065,-496.55853,238.72032
77,506436.98125213943,0.0001115673095525946,MAR3.9_NorESM1-M_rcp85_ocean_1960-2100_v4.nc,RACMO2.3p2_ERA5_FGRN055_1940_2023.nc,0.0002599801887519,1.6517463670236852,0.7195639510284975,1.7014495536780834,pism_g450m_frontretreat_calfin_1972_2019.nc,2.7487519,3.3084342,0.57300526,0.01743407,6.7295403,43.028435,-573.98175,377.71915
78,362682.0338014596,0.00013851400515815706,MAR3.9_NorESM1-M_rcp85_ocean_1960-2100_v4.nc,RACMO2.3p2_ERA5_FGRN055_1940_2023.nc,0.0002496973090892247,1.2343975111126948,0.746379580590122,1.2064525140536992,pism_g450m_frontretreat_calfin_1972_2019.nc,2.5811844,3.354358,0.8203079,0.02175197,7.911511,40.677254,-351.07208,287.3708
79,342502.76898702263,7.769460183854377e-05,MAR3.9_CNRM-ESM2_ssp585_ocean_1960-2100_v4.nc,HIRHAM5-monthly-ERA5_1975_2021.nc,0.0002840650842722084,1.066893425927439,0.508320566899314,1.3299837599000828,,2.4049633,3.2264948,0.6554256,0.021715043,7.104003,41.082897,-334.78558,421.56866
80,725346.1393100132,0.0001127729131853805,MAR3.9_UKESM1-CM6_ssp585_ocean_1960-2100_v4.nc,MARv3.14-monthly-ERA5_1940_2023.nc,0.00029128398405746413,1.1005729651275906,0.482217602453155,1.3251503796368387,,2.4877918,3.2298183,0.85114634,0.025044277,5.702433,42.34438,-254.90645,435.72906
81,394261.6851855177,9.16516555245198e-05,MAR3.9_ACCESS1-3_rcp85_ocean_1960-2100_v4.nc,MARv3.14-monthly-ERA5_1940_2023.nc,0.0003112095816951734,1.2580947674588634,0.524633720935129,1.467657705427881,,2.6802046,3.287539,0.7799917,0.02076724,5.2084317,43.13342,-410.5113,159.24437
82,363434.0311158919,9.317094483734511e-05,MAR3.9_CNRM-ESM2_ssp585_ocean_1960-2100_v4.nc,HIRHAM5-monthly-ERA5_1975_2021.nc,0.00026892216244963935,1.213864876341196,0.351280781117532,1.6108306914497827,pism_g450m_frontretreat_calfin_1972_2019.nc,3.0447721,3.2892466,0.6952891,0.028802466,6.649615,40.79024,-262.4747,618.504
83,385651.24338326475,0.00014861061962559094,MAR3.9_CSIRO-Mk3.6_rcp85_ocean_1960-2100_v4.nc,HIRHAM5-monthly-ERA5_1975_2021.nc,0.00031797158873420154,1.1071525614388136,0.8026707782397111,1.739720227263088,,3.083146,3.2716775,0.64774704,0.020353287,8.462589,41.7615,-279.83554,182.98315
84,339506.750735162,7.515455555071933e-05,MAR3.9_ACCESS1-3_rcp85_ocean_1960-2100_v4.nc,MARv3.14-monthly-ERA5_1940_2023.nc,0.0003121409443232511,1.092849265719293,0.7959557582821211,1.4199780056559632,pism_g450m_frontretreat_calfin_1972_2019.nc,2.753278,3.307473,0.76200217,0.02000958,8.103864,44.176735,-348.2197,408.21912
85,706369.520303464,0.00010150532549032352,MAR3.9_CNRM-ESM2_ssp585_ocean_1960-2100_v4.nc,MARv3.14-monthly-ERA5_1940_2023.nc,0.0002746751695897735,1.3142646249518666,0.7575788668276913,1.4332908024553415,,2.7234182,3.2992234,0.65248096,0.018604748,7.4985833,43.287376,-390.48206,408.70782
86,659553.9270318317,9.290944867847018e-05,MAR3.9_IPSL-CM5-MR_rcp85_ocean_1960-2100_v4.nc,MARv3.14-monthly-ERA5_1940_2023.nc,0.00027755597731775024,1.3449923457611224,0.8100338645506886,1.5935475119688653,,3.0490873,3.3051114,0.6017142,0.022977944,10.259415,43.51665,-480.33395,451.40567
87,543917.5131210105,9.213266517239872e-05,MAR3.9_CSIRO-Mk3.6_rcp85_ocean_1960-2100_v4.nc,MARv3.14-monthly-ERA5_1940_2023.nc,0.00035061304606997135,1.5144075285912688,0.34795098940186264,1.6653966556070188,,2.66434,3.2885206,0.65138215,0.01997264,5.308177,42.556,-379.47095,230.6423
88,305826.07024183124,0.0001097745370698622,MAR3.9_ACCESS1-3_rcp85_ocean_1960-2100_v4.nc,HIRHAM5-monthly-ERA5_1975_2021.nc,0.00026656586883577375,1.4171848141386238,0.5123813685472505,1.6690972105523991,pism_g450m_frontretreat_calfin_1972_2019.nc,2.8946025,3.3041685,0.77341557,0.017207474,6.9811997,44.54754,-313.36334,182.79236
89,709190.319220352,0.00011365038761110035,MAR3.9_CSIRO-Mk3.6_rcp85_ocean_1960-2100_v4.nc,MARv3.14-monthly-ERA5_1940_2023.nc,0.0003078285791074971,1.6604195218237487,0.5365526257822704,1.6095000836316131,pism_g450m_frontretreat_calfin_1972_2019.nc,2.5631912,3.341874,0.77559096,0.0231693,9.596659,42.045677,-274.15085,450.94543
90,504315.21632885427,0.0001028534279771506,MAR3.9_HadGEM2-ES_rcp85_ocean_1960-2100_v4.nc,RACMO2.3p2_ERA5_FGRN055_1940_2023.nc,0.0002682742796130058,1.6614338770900163,0.4253009902680286,1.3139362761244,pism_g450m_frontretreat_calfin_1972_2019.nc,2.7311518,3.3047194,0.9336168,0.014765671,6.6494083,44.436317,-406.20343,285.27887
91,681784.203570039,0.00012886922624398363,MAR3.9_IPSL-CM5-MR_rcp85_ocean_1960-2100_v4.nc,MARv3.14-monthly-ERA5_1940_2023.nc,0.00035100782591469126,1.1614365649360088,0.6138641953262323,1.7546847040801583,pism_g450m_frontretreat_calfin_1972_2019.nc,2.8461196,3.3278985,0.7324064,0.016600871,7.79929,41.487045,-453.35043,135.76782
92,629693.4707990246,0.00014133942761314133,MAR3.9_NorESM1-M_rcp85_ocean_1960-2100_v4.nc,RACMO2.3p2_ERA5_FGRN055_1940_2023.nc,0.0002789816974588317,1.3233353752588817,0.3858356022248359,1.3454224779007273,pism_g450m_frontretreat_calfin_1972_2019.nc,1.8882108,3.301236,0.7514914,0.015419849,7.045673,41.01874,-535.7667,379.02615
93,424686.8456481086,0.00013984945973821163,MAR3.9_CSIRO-Mk3.6_rcp85_ocean_1960-2100_v4.nc,HIRHAM5-monthly-ERA5_1975_2021.nc,0.00032135560325992536,1.0755262819899876,0.4468719583847749,1.771960997858413,pism_g450m_frontretreat_calfin_1972_2019.nc,2.7046704,3.2920773,0.7783941,0.01620992,9.640727,44.320778,-354.04358,67.36885
94,351382.4914334818,0.00013232290069428083,MAR3.9_UKESM1-CM6_ssp585_ocean_1960-2100_v4.nc,MARv3.14-monthly-ERA5_1940_2023.nc,0.00028411520599632166,1.0403539867338645,0.3782697339183221,1.3437553146329506,pism_g450m_frontretreat_calfin_1972_2019.nc,2.4162257,3.3554704,0.9056982,0.014896233,11.375773,42.163647,-205.06502,149.29633
95,607233.3119667228,0.0001410896990235485,MAR3.9_NorESM1-M_rcp85_ocean_1960-2100_v4.nc,HIRHAM5-monthly-ERA5_1975_2021.nc,0.00031291051820665154,1.0122574178526949,0.5401235039829532,1.3002135971050428,pism_g450m_frontretreat_calfin_1972_2019.nc,2.590986,3.3058236,0.70240784,0.019759376,6.5710745,41.363495,-272.49417,231.01457
96,385159.95403650374,0.00011205500798573836,MAR3.9_HadGEM2-ES_rcp85_ocean_1960-2100_v4.nc,RACMO2.3p2_ERA5_FGRN055_1940_2023.nc,0.0003284865740582041,1.5623334501122883,0.7666014719794036,1.251354209589725,,3.069161,3.2873068,0.8067882,0.019440293,7.6355076,42.531067,-242.24062,136.78018
97,787693.258411831,0.00011861951538265459,MAR3.9_NorESM1-M_rcp85_ocean_1960-2100_v4.nc,RACMO2.3p2_ERA5_FGRN055_1940_2023.nc,0.0003010022666509718,1.371919368190988,0.8393699021224157,1.3025513219378348,pism_g450m_frontretreat_calfin_1972_2019.nc,3.119689,3.336698,0.75028527,0.018691253,13.866623,44.328045,-150.15335,221.02678
98,558400.8842331234,0.00013012280874709293,MAR3.9_CSIRO-Mk3.6_rcp85_ocean_1960-2100_v4.nc,HIRHAM5-monthly-ERA5_1975_2021.nc,0.0003254647028469784,1.5545191879269145,0.5854694439071201,1.59218056060296,,2.7100475,3.3405964,0.7849758,0.015397154,6.4301567,43.649986,-505.16266,235.98247
99,767246.6205182199,0.00011308452000686792,MAR3.9_CSIRO-Mk3.6_rcp85_ocean_1960-2100_v4.nc,MARv3.14-monthly-ERA5_1940_2023.nc,0.00024439544997067027,1.3479158322766538,0.35945265164819273,1.7843701673921477,,2.3015525,3.3160212,0.81708735,0.013328684,7.0215945,43.39588,-414.7992,124.93334
100,476487.2088288222,0.00012740984789091797,MAR3.9_MIROC-ESM-CHEM_rcp26_ocean_1960-2100_v4.nc,RACMO2.3p2_ERA5_FGRN055_1940_2023.nc,0.00028432538130822684,1.3815276944568464,0.5381225674182238,1.7709175136366437,,2.7536948,3.2275796,0.76878464,0.016653715,9.077584,43.486614,-284.70682,236.10341
101,588523.186080917,0.00011747528156433708,MAR3.9_MIROC-ESM-CHEM_rcp26_ocean_1960-2100_v4.nc,RACMO2.3p2_ERA5_FGRN055_1940_2023.nc,0.0002982176365846592,1.4037957900882316,0.3668724338774921,1.589793204826358,pism_g450m_frontretreat_calfin_1972_2019.nc,3.0464787,3.2228885,0.80418766,0.025116118,5.115843,43.587402,-271.39667,468.92487
102,506003.247248082,0.00012735812441876392,MAR3.9_IPSL-CM5-MR_rcp85_ocean_1960-2100_v4.nc,RACMO2.3p2_ERA5_FGRN055_1940_2023.nc,0.0002541961899534842,1.6982111917078058,0.33117729079444824,1.2861586678249783,,2.6676855,3.2625825,0.6401399,0.022212218,7.196742,41.65396,-360.27383,394.6866
103,694541.7145607579,0.0001075174373109421,MAR3.9_NorESM1-M_rcp85_ocean_1960-2100_v4.nc,RACMO2.3p2_ERA5_FGRN055_1940_2023.nc,0.00028275306997372615,1.0486442568343883,0.4195081596490975,1.2778133282061004,pism_g450m_frontretreat_calfin_1972_2019.nc,2.5829947,3.2918272,0.73575777,0.016335076,8.801104,42.48492,-340.31863,136.12975
104,702685.0179532841,0.0001427227563615606,MAR3.9_UKESM1-CM6_ssp585_ocean_1960-2100_v4.nc,HIRHAM5-monthly-ERA5_1975_2021.nc,0.00033379895332159046,1.2588599005508265,0.30325279460769694,1.3310446624568661,,2.679574,3.3649359,0.72415876,0.017045477,5.823244,41.895073,-428.74933,111.80113
105,485831.76777724293,7.715479927506714e-05,MAR3.9_ACCESS1-3_rcp85_ocean_1960-2100_v4.nc,MARv3.14-monthly-ERA5_1940_2023.nc,0.0003443767607465982,1.4903117548246734,0.817940433068276,1.2912724273376313,,2.1518652,3.309085,0.6383986,0.017416291,8.796744,42.606743,-327.8825,226.03915
106,786816.8734834078,0.00012933666370125956,MAR3.9_MIROC-ESM-CHEM_rcp26_ocean_1960-2100_v4.nc,HIRHAM5-monthly-ERA5_1975_2021.nc,0.00032146160790559857,1.3286232208321416,0.30633233277035576,1.6018631589217653,,2.8469806,3.2022815,0.6508636,0.026153797,5.7744412,44.577785,-349.73166,586.14136
107,566832.7780489558,8.746718768140938e-05,MAR3.9_NorESM1-M_rcp85_ocean_1960-2100_v4.nc,RACMO2.3p2_ERA5_FGRN055_1940_2023.nc,0.0003581649436926657,1.340860817107394,0.7005125457229681,1.121907584436023,pism_g450m_frontretreat_calfin_1972_2019.nc,2.675634,3.355496,0.80218005,0.015998716,8.1905365,43.28411,-406.58948,160.26054
108,362477.4125507526,8.174156997757964e-05,MAR3.9_IPSL-CM5-MR_rcp85_ocean_1960-2100_v4.nc,HIRHAM5-monthly-ERA5_1975_2021.nc,0.00033007799083759255,1.3728495720967304,0.3454605883378135,1.7464008694720228,,2.7113578,3.3271992,0.82288253,0.014564989,7.4976516,41.63119,-272.81772,127.00621
109,418209.7604112369,0.00011951943539356111,MAR3.9_UKESM1-CM6_ssp585_ocean_1960-2100_v4.nc,RACMO2.3p2_ERA5_FGRN055_1940_2023.nc,0.00035182633992553343,1.3676912269091805,0.5990349414145881,1.399739607831344,,2.8915355,3.2896743,0.75152737,0.015877085,11.285014,43.309555,-305.49716,79.37794
110,420989.5982160263,0.00011220141543373459,MAR3.9_CNRM-CM6_ssp126_ocean_1960-2100_v4.nc,MARv3.14-monthly-ERA5_1940_2023.nc,0.0003216467606092947,1.1276193118839442,0.4044134845174589,1.5190167364435088,pism_g450m_frontretreat_calfin_1972_2019.nc,2.617756,3.3329508,0.87532675,0.01918326,5.887614,41.309624,-321.55124,78.44992
111,572393.0979033032,0.00013506933628468768,MAR3.9_HadGEM2-ES_rcp85_ocean_1960-2100_v4.nc,HIRHAM5-monthly-ERA5_1975_2021.nc,0.000297222957035141,1.5946036065973033,0.7321960452399765,1.4750963082934752,pism_g450m_frontretreat_calfin_1972_2019.nc,2.7836788,3.287233,0.71406305,0.017770968,9.455629,44.699936,-333.13177,416.16113
112,499420.7092521603,8.424162093196059e-05,MAR3.9_NorESM1-M_rcp85_ocean_1960-2100_v4.nc,MARv3.14-monthly-ERA5_1940_2023.nc,0.0003049619411008555,1.1655693158023621,0.5728992265494341,1.7964360237806973,pism_g450m_frontretreat_calfin_1972_2019.nc,1.9445752,3.3606453,0.7770538,0.010542979,8.96262,43.736427,-403.7211,112.69265
113,553868.942242751,7.882818692108837e-05,MAR3.9_HadGEM2-ES_rcp85_ocean_1960-2100_v4.nc,HIRHAM5-monthly-ERA5_1975_2021.nc,0.00024321364019216248,1.0055379332839667,0.4285253501175045,1.301912463008082,,3.0143864,3.3050444,0.69926405,0.025849909,7.7023883,40.42049,-307.7152,421.97333
114,728840.5571253553,8.589479844838079e-05,MAR3.9_CSIRO-Mk3.6_rcp85_ocean_1960-2100_v4.nc,RACMO2.3p2_ERA5_FGRN055_1940_2023.nc,0.00035764648636420063,1.0449085228497916,0.31770947806948757,1.5825731865754138,pism_g450m_frontretreat_calfin_1972_2019.nc,2.2153282,3.227452,0.73074275,0.018784264,5.844784,40.76606,-413.78348,309.5478
115,600904.5181187532,7.885433796327291e-05,MAR3.9_MIROC-ESM-CHEM_rcp26_ocean_1960-2100_v4.nc,RACMO2.3p2_ERA5_FGRN055_1940_2023.nc,0.0003295583373457915,1.2771264005608063,0.6175881814661885,1.2597200975276395,pism_g450m_frontretreat_calfin_1972_2019.nc,3.0808592,3.3183527,0.68136406,0.017948762,5.4058876,44.524796,-422.55203,86.5599
116,472720.4986273315,8.975143886143458e-05,MAR3.9_UKESM1-CM6_ssp585_ocean_1960-2100_v4.nc,MARv3.14-monthly-ERA5_1940_2023.nc,0.00027294125403455887,1.6578449558950001,0.8475464157614703,1.2973493678988015,,3.3184412,3.3431482,0.5974954,0.023948602,6.4408383,41.580624,-423.71878,230.432
117,621146.8609676587,8.686184588115078e-05,MAR3.9_CSIRO-Mk3.6_rcp85_ocean_1960-2100_v4.nc,RACMO2.3p2_ERA5_FGRN055_1940_2023.nc,0.00024977763788519526,1.1453118793858843,0.5032301040041267,1.6860264022148308,pism_g450m_frontretreat_calfin_1972_2019.nc,2.8223577,3.3186407,0.76803035,0.015880585,12.149619,42.53097,-240.47533,294.26495
118,479214.1164907275,9.896593052932842e-05,MAR3.9_IPSL-CM5-MR_rcp85_ocean_1960-2100_v4.nc,RACMO2.3p2_ERA5_FGRN055_1940_2023.nc,0.00030254270981223486,1.1370084482386391,0.53983469022448,1.5721516028265712,pism_g450m_frontretreat_calfin_1972_2019.nc,2.5782669,3.3003953,0.7411786,0.02581626,5.257685,43.669422,-421.5125,726.4206
119,734764.5213992016,0.00014781350865522694,MAR3.9_CNRM-ESM2_ssp585_ocean_1960-2100_v4.nc,MARv3.14-monthly-ERA5_1940_2023.nc,0.00029477271216291854,1.689887007331555,0.5959409045032853,1.277386569276749,,2.6936138,3.256679,0.7206967,0.02323879,6.2715516,41.983532,-220.5969,265.78592
120,491698.3632754589,8.666832772709232e-05,MAR3.9_CSIRO-Mk3.6_rcp85_ocean_1960-2100_v4.nc,MARv3.14-monthly-ERA5_1940_2023.nc,0.0003421159587572752,1.3494212634463674,0.3825319873999595,1.7696107155397929,pism_g450m_frontretreat_calfin_1972_2019.nc,2.5439909,3.2709236,0.72374517,0.019104348,7.3817706,43.962852,-441.9134,258.52756
121,629069.586236509,9.482306897604553e-05,MAR3.9_NorESM1-M_rcp85_ocean_1960-2100_v4.nc,HIRHAM5-monthly-ERA5_1975_2021.nc,0.00035835829445092266,1.4669134933331311,0.3449865201833412,1.59625407775648,,2.3626719,3.269116,0.75772893,0.017067598,5.99831,42.384594,-367.55707,163.34467
122,467507.0557733735,0.00014304291633625185,MAR3.9_UKESM1-CM6_ssp585_ocean_1960-2100_v4.nc,MARv3.14-monthly-ERA5_1940_2023.nc,0.000284602487915267,1.230934769095237,0.6491382723883319,1.1987040116758023,pism_g450m_frontretreat_calfin_1972_2019.nc,2.5808437,3.3268585,0.63693917,0.018734543,8.885849,41.20571,-350.94324,128.4949
123,465559.47267635603,0.0001356127229201607,MAR3.9_CSIRO-Mk3.6_rcp85_ocean_1960-2100_v4.nc,RACMO2.3p2_ERA5_FGRN055_1940_2023.nc,0.00029214246523691655,1.204540159920599,0.5548211544051362,1.6193905068091885,pism_g450m_frontretreat_calfin_1972_2019.nc,2.5010347,3.2643979,0.5751987,0.017408341,9.9283,42.143635,-466.4226,319.9312
124,743441.2632277391,0.00014670128637608623,MAR3.9_CNRM-ESM2_ssp585_ocean_1960-2100_v4.nc,RACMO2.3p2_ERA5_FGRN055_1940_2023.nc,0.0003467334099867862,1.2470856967920325,0.3751261527808301,1.3702447198805567,pism_g450m_frontretreat_calfin_1972_2019.nc,2.3235543,3.301735,0.5478419,0.021060066,9.501779,40.97577,-567.1305,501.2656
125,556449.6542916403,7.622700421789123e-05,MAR3.9_MIROC-ESM-CHEM_rcp26_ocean_1960-2100_v4.nc,RACMO2.3p2_ERA5_FGRN055_1940_2023.nc,0.0002660233486576552,1.6905321916089835,0.7280235841784097,1.755489156111282,,2.5800993,3.2800333,0.65895903,0.021290815,9.562262,42.73592,-452.48376,434.46198
126,667005.9975295708,0.00013529450310932096,MAR3.9_UKESM1-CM6_ssp585_ocean_1960-2100_v4.nc,MARv3.14-monthly-ERA5_1940_2023.nc,0.0003543865627323587,1.274652850399438,0.48383138899842637,1.7443224274962112,pism_g450m_frontretreat_calfin_1972_2019.nc,2.895999,3.2875423,0.55362093,0.020873321,5.833068,41.434967,-436.22052,251.79982
127,421723.18800845824,0.00012864839684534633,MAR3.9_NorESM1-M_rcp85_ocean_1960-2100_v4.nc,HIRHAM5-monthly-ERA5_1975_2021.nc,0.00030592918716106847,1.4149723480948067,0.46367197265479276,1.222745588910105,,1.8779538,3.323428,0.91489357,0.012171529,7.8971114,42.905205,-380.08746,113.62438
128,653160.750482579,9.333265988413595e-05,MAR3.9_CSIRO-Mk3.6_rcp85_ocean_1960-2100_v4.nc,RACMO2.3p2_ERA5_FGRN055_1940_2023.nc,0.00034870229386673845,1.48305995563631,0.499893023526484,1.3272479551995917,pism_g450m_frontretreat_calfin_1972_2019.nc,2.5695612,3.3761885,0.85241973,0.019611014,7.674036,40.631947,-315.103,154.40979
129,709538.3973194135,8.360430732416798e-05,MAR3.9_UKESM1-CM6_ssp585_ocean_1960-2100_v4.nc,RACMO2.3p2_ERA5_FGRN055_1940_2023.nc,0.0002712394843829189,1.6417754926989263,0.5638558959126334,1.5376143792865011,,1.9826406,3.2849336,0.74098825,0.011398892,5.483075,43.54936,-507.8371,206.96463
130,650405.4040380483,0.00011152844108721122,MAR3.9_IPSL-CM5-MR_rcp85_ocean_1960-2100_v4.nc,RACMO2.3p2_ERA5_FGRN055_1940_2023.nc,0.000332283394626793,1.075019859566623,0.32492998598075507,1.3070014342939,,2.5480247,3.3060749,0.78428316,0.021037074,5.8963847,43.53738,-447.51364,586.2136
131,347196.56557719415,9.868000354068166e-05,MAR3.9_CNRM-ESM2_ssp585_ocean_1960-2100_v4.nc,MARv3.14-monthly-ERA5_1940_2023.nc,0.0002439791924483428,1.1740921135235918,0.7988951771396822,1.4137933627406292,,3.0074992,3.2519624,0.76127297,0.018844133,6.358053,41.058315,-272.57568,130.87227
132,645695.9126728112,0.00011429639239024541,MAR3.9_IPSL-CM5-MR_rcp85_ocean_1960-2100_v4.nc,MARv3.14-monthly-ERA5_1940_2023.nc,0.0002542671061875735,1.361507978312661,0.6259796570307687,1.4591275013339589,,2.8617902,3.2714577,0.75599647,0.021211924,5.3818126,40.444374,-508.10083,445.99084
133,672678.9508171424,0.0001139741529141779,MAR3.9_UKESM1-CM6_ssp585_ocean_1960-2100_v4.nc,MARv3.14-monthly-ERA5_1940_2023.nc,0.00035359759895035365,1.3622970276342525,0.7186710206687452,1.36896841537116,pism_g450m_frontretreat_calfin_1972_2019.nc,2.204536,3.3467574,0.719823,0.01704015,9.155155,44.897945,-527.88995,536.3147
134,490411.768378133,0.00010982034742331904,MAR3.9_UKESM1-CM6_ssp585_ocean_1960-2100_v4.nc,HIRHAM5-monthly-ERA5_1975_2021.nc,0.0003185017367492727,1.6485706008493692,0.31048626297687415,1.5536080628725841,pism_g450m_frontretreat_calfin_1972_2019.nc,2.5780706,3.2221215,0.7569388,0.017610827,9.308251,43.73819,-179.10881,74.32922
135,311300.12923019007,0.00011506134371268268,MAR3.9_HadGEM2-ES_rcp85_ocean_1960-2100_v4.nc,HIRHAM5-monthly-ERA5_1975_2021.nc,0.00033033230252335025,1.519159330162303,0.5573387656283673,1.2716832052227454,,2.7415855,3.3281333,0.5802237,0.021025967,8.76055,43.1738,-465.85184,380.14148
136,438590.152086525,0.00013299130871929538,MAR3.9_MIROC-ESM-CHEM_rcp26_ocean_1960-2100_v4.nc,HIRHAM5-monthly-ERA5_1975_2021.nc,0.00029448115038469133,1.4872823542556037,0.4187038505149312,1.6047705381508974,pism_g450m_frontretreat_calfin_1972_2019.nc,2.3876944,3.320598,0.7238725,0.012874145,5.541761,44.0117,-427.1481,176.25395
137,623177.7407558009,0.00012982428212706217,MAR3.9_CSIRO-Mk3.6_rcp85_ocean_1960-2100_v4.nc,RACMO2.3p2_ERA5_FGRN055_1940_2023.nc,0.0002485246202494912,1.6018687389373492,0.5470964261657945,1.2704944622833159,,2.9063714,3.3477116,0.6771747,0.018555585,5.4406548,42.152977,-527.3184,181.48141
138,352842.41345514805,8.927955924033917e-05,MAR3.9_MIROC-ESM-CHEM_rcp26_ocean_1960-2100_v4.nc,MARv3.14-monthly-ERA5_1940_2023.nc,0.0003436017640281493,1.599984230683365,0.6958308908580222,1.1849168503781198,,2.6995022,3.2801225,0.7822387,0.018422911,5.091927,41.46456,-451.69864,272.13293
139,577259.8499141497,0.00010712030051098305,MAR3.9_IPSL-CM5-MR_rcp85_ocean_1960-2100_v4.nc,RACMO2.3p2_ERA5_FGRN055_1940_2023.nc,0.00024409620295990787,1.544812389883957,0.5972103426630357,1.3276480073810106,pism_g450m_frontretreat_calfin_1972_2019.nc,2.6663406,3.2377272,0.7795513,0.022322046,6.676087,43.252796,-385.2153,597.23694
140,649959.8211377736,8.181909295023517e-05,MAR3.9_HadGEM2-ES_rcp85_ocean_1960-2100_v4.nc,RACMO2.3p2_ERA5_FGRN055_1940_2023.nc,0.0002487958779886545,1.2082974909491653,0.3998314218268497,1.4398509307326806,,2.4945495,3.2964058,0.54013485,0.018493878,9.23143,41.510876,-434.1306,212.12903
141,567221.847126475,0.00013183222022618093,MAR3.9_CSIRO-Mk3.6_rcp85_ocean_1960-2100_v4.nc,RACMO2.3p2_ERA5_FGRN055_1940_2023.nc,0.00032592657705759077,1.5274187633218261,0.5255539023774063,1.6986355829028308,,2.5590265,3.2486777,0.7742852,0.024901226,5.8955584,41.939774,-321.23227,503.16455
142,570205.1634327224,8.455042483274461e-05,MAR3.9_UKESM1-CM6_ssp585_ocean_1960-2100_v4.nc,MARv3.14-monthly-ERA5_1940_2023.nc,0.00030520969708735564,1.296801864894433,0.7383832917633509,1.6898050994973461,,2.54377,3.2952492,0.8696757,0.015164941,9.563384,44.581917,-292.0147,217.6606
143,641257.1321262533,0.00010212735805349645,MAR3.9_NorESM1-M_rcp85_ocean_1960-2100_v4.nc,RACMO2.3p2_ERA5_FGRN055_1940_2023.nc,0.0002990701573791165,1.6479540367761365,0.44193995354787274,1.667914619943791,pism_g450m_frontretreat_calfin_1972_2019.nc,2.5737653,3.3049252,0.8622957,0.020442536,7.328328,42.191788,-357.55627,291.22433
144,612821.9519891257,0.00010667854739080595,MAR3.9_HadGEM2-ES_rcp85_ocean_1960-2100_v4.nc,RACMO2.3p2_ERA5_FGRN055_1940_2023.nc,0.00028155789224651624,1.4447107557580212,0.6059141641898315,1.6416690842200246,pism_g450m_frontretreat_calfin_1972_2019.nc,2.7098227,3.2784083,0.8139684,0.024687668,7.193471,43.198883,-209.54193,521.3089
145,581243.8875040167,0.00010936181345940903,MAR3.9_ACCESS1-3_rcp85_ocean_1960-2100_v4.nc,HIRHAM5-monthly-ERA5_1975_2021.nc,0.00035020351557651295,1.2508525048146555,0.7537207728416546,1.5306112922319404,pism_g450m_frontretreat_calfin_1972_2019.nc,2.5926006,3.2717404,0.7241206,0.022137556,6.1830935,43.67117,-363.42465,488.9088
146,422581.5807045099,9.403662125141363e-05,MAR3.9_ACCESS1-3_rcp85_ocean_1960-2100_v4.nc,HIRHAM5-monthly-ERA5_1975_2021.nc,0.0003110180531827621,1.583626079321222,0.752125807150902,1.1162905247839425,,2.819215,3.3383536,0.60609275,0.019071762,6.86636,44.052147,-477.8017,215.52368
147,722010.4142958578,8.781969036487866e-05,MAR3.9_CSIRO-Mk3.6_rcp85_ocean_1960-2100_v4.nc,HIRHAM5-monthly-ERA5_1975_2021.nc,0.00035200193218784537,1.5067594887457725,0.5739261453019662,1.7220516646739785,pism_g450m_frontretreat_calfin_1972_2019.nc,2.202973,3.3316965,0.79812574,0.01704099,5.9776306,42.871033,-417.02496,385.1591
148,370715.91208750056,7.920250195434557e-05,MAR3.9_UKESM1-CM6_ssp585_ocean_1960-2100_v4.nc,HIRHAM5-monthly-ERA5_1975_2021.nc,0.00024347703508426538,1.294666861076227,0.4681816542310645,1.1376255659880774,pism_g450m_frontretreat_calfin_1972_2019.nc,2.9944217,3.2871046,0.639499,0.018154128,8.383915,43.337936,-312.90976,110.20567
149,780687.7235106549,0.00014209054818731644,MAR3.9_CNRM-ESM2_ssp585_ocean_1960-2100_v4.nc,HIRHAM5-monthly-ERA5_1975_2021.nc,0.00031245517853318455,1.4068495080976406,0.7010418475685627,1.6477305149909902,pism_g450m_frontretreat_calfin_1972_2019.nc,2.8310273,3.2571511,0.85768545,0.02800071,5.327664,40.18324,-278.86844,520.3263
150,655243.6552363038,0.00013423903171063065,MAR3.9_CNRM-ESM2_ssp585_ocean_1960-2100_v4.nc,HIRHAM5-monthly-ERA5_1975_2021.nc,0.00026240269458313045,1.573845846265015,0.5585755037094453,1.1543799966547643,pism_g450m_frontretreat_calfin_1972_2019.nc,2.9631147,3.2583756,0.6562378,0.018194968,11.365383,43.65075,-304.5734,126.26858
151,348504.37531941984,9.177924970279527e-05,MAR3.9_CNRM-ESM2_ssp585_ocean_1960-2100_v4.nc,HIRHAM5-monthly-ERA5_1975_2021.nc,0.000265331382845426,1.225044549088749,0.394623103766256,1.1460749310914289,,2.413016,3.329558,0.64008796,0.015861364,5.931356,43.905235,-743.568,526.95264
152,384331.6548697242,0.0001370227459264479,MAR3.9_UKESM1-CM6_ssp585_ocean_1960-2100_v4.nc,RACMO2.3p2_ERA5_FGRN055_1940_2023.nc,0.00031016544412723395,1.0571501369794003,0.6202646032476207,1.3802975398344035,,2.283326,3.2824652,0.7698026,0.017725177,6.8236184,43.23306,-364.97833,267.27225
153,615017.609685282,7.722341613199841e-05,MAR3.9_CSIRO-Mk3.6_rcp85_ocean_1960-2100_v4.nc,HIRHAM5-monthly-ERA5_1975_2021.nc,0.000282652313969603,1.4010340960128653,0.35298119530366695,1.7122284294874872,pism_g450m_frontretreat_calfin_1972_2019.nc,2.6325445,3.3879359,0.8404453,0.025971219,7.3372955,41.043148,-219.67372,98.14207
154,721656.9220017147,0.00014091353768186507,MAR3.9_NorESM1-M_rcp85_ocean_1960-2100_v4.nc,MARv3.14-monthly-ERA5_1940_2023.nc,0.00035052522769099347,1.0587502460093374,0.5949777894025323,1.7973723681495262,,2.9482758,3.302323,0.6307845,0.019185789,5.267716,42.97678,-494.4366,323.3207
155,457385.7460893065,9.112486223278375e-05,MAR3.9_CNRM-CM6_ssp126_ocean_1960-2100_v4.nc,RACMO2.3p2_ERA5_FGRN055_1940_2023.nc,0.0003582027457270894,1.0524147298714328,0.562609684767682,1.6761385663866588,,2.6987998,3.2905407,0.7532548,0.024118975,8.993309,41.71766,-300.00342,402.56445
156,379443.8288994902,8.189126602748969e-05,MAR3.9_HadGEM2-ES_rcp85_ocean_1960-2100_v4.nc,HIRHAM5-monthly-ERA5_1975_2021.nc,0.0002753056562240491,1.11571778292503,0.7414260215150705,1.715844182137007,pism_g450m_frontretreat_calfin_1972_2019.nc,2.6147833,3.2671049,0.7326642,0.023992201,9.547502,40.228706,-252.11497,228.28842
157,425807.187116404,0.00011891196444026767,MAR3.9_IPSL-CM5-MR_rcp85_ocean_1960-2100_v4.nc,RACMO2.3p2_ERA5_FGRN055_1940_2023.nc,0.00025610460729199154,1.3916440039544957,0.5407057854720286,1.4059436344879375,pism_g450m_frontretreat_calfin_1972_2019.nc,2.5252388,3.3074026,0.73939407,0.021422945,10.968434,41.2822,-248.68756,359.2286
158,614863.550660948,9.633691519700654e-05,MAR3.9_CNRM-ESM2_ssp585_ocean_1960-2100_v4.nc,MARv3.14-monthly-ERA5_1940_2023.nc,0.0003133381218253046,1.4186451313636705,0.6062485628069368,1.2850143119030835,,2.2068858,3.166536,0.76793617,0.017418634,8.107945,41.54494,-304.80054,300.13696
159,585692.6832978597,0.00014070134313818396,MAR3.9_CNRM-ESM2_ssp585_ocean_1960-2100_v4.nc,HIRHAM5-monthly-ERA5_1975_2021.nc,0.00032397332245195064,1.5246082531649119,0.5531650838868134,1.3735986539098386,pism_g450m_frontretreat_calfin_1972_2019.nc,2.7931314,3.2672472,0.6820726,0.01549428,7.159866,43.37216,-412.44656,236.03781
160,661873.8894768473,8.258505299102911e-05,MAR3.9_CNRM-CM6_ssp126_ocean_1960-2100_v4.nc,HIRHAM5-monthly-ERA5_1975_2021.nc,0.000316911174489276,1.062487162654437,0.8320566449419764,1.1482342972713033,pism_g450m_frontretreat_calfin_1972_2019.nc,3.1196973,3.2778225,0.69134164,0.02542173,5.9437647,44.384087,-405.49014,605.4281
161,577853.9531019678,9.555395378797487e-05,MAR3.9_UKESM1-CM6_ssp585_ocean_1960-2100_v4.nc,HIRHAM5-monthly-ERA5_1975_2021.nc,0.00033949495897291326,1.5453420035496643,0.512717170148442,1.3962270273416377,pism_g450m_frontretreat_calfin_1972_2019.nc,2.2059221,3.3172648,0.73229337,0.015677733,10.542201,41.656788,-251.54504,263.37805
162,741932.7878294826,8.13368616182485e-05,MAR3.9_CSIRO-Mk3.6_rcp85_ocean_1960-2100_v4.nc,MARv3.14-monthly-ERA5_1940_2023.nc,0.00035131014546418797,1.2804579453377258,0.5744388503557009,1.2432451134339515,pism_g450m_frontretreat_calfin_1972_2019.nc,2.6386344,3.2475955,0.7420186,0.023792095,8.048942,43.449314,-268.77692,151.46095
163,382854.55174545036,9.41926795424229e-05,MAR3.9_CSIRO-Mk3.6_rcp85_ocean_1960-2100_v4.nc,RACMO2.3p2_ERA5_FGRN055_1940_2023.nc,0.0003218008425071155,1.4562485885631251,0.6034580715645188,1.7934877177434818,,1.7563642,3.319005,0.77755576,0.017731488,5.674119,40.60218,-376.13885,315.19727
164,784761.4325159956,9.840960311662697e-05,MAR3.9_UKESM1-CM6_ssp585_ocean_1960-2100_v4.nc,HIRHAM5-monthly-ERA5_1975_2021.nc,0.00026381177857681866,1.5282371963321495,0.34618775976295985,1.4101428067290762,pism_g450m_frontretreat_calfin_1972_2019.nc,2.3895264,3.3180163,0.6619767,0.015627371,6.5924497,43.781178,-517.67035,413.66486
165,340787.02767655754,9.990264711049386e-05,MAR3.9_CNRM-ESM2_ssp585_ocean_1960-2100_v4.nc,RACMO2.3p2_ERA5_FGRN055_1940_2023.nc,0.00024086520255331984,1.0031582876561882,0.7729693789896899,1.159192543633248,,2.0185976,3.2724693,0.8045988,0.02061524,5.5957932,41.359863,-367.87704,445.81848
166,500218.22922179836,7.538202465528517e-05,MAR3.9_CNRM-ESM2_ssp585_ocean_1960-2100_v4.nc,MARv3.14-monthly-ERA5_1940_2023.nc,0.0003553697488477317,1.2560615418480985,0.8269809559976267,1.6320350570893098,pism_g450m_frontretreat_calfin_1972_2019.nc,2.7743099,3.345815,0.92488724,0.019201452,7.2874584,42.819904,-350.0619,261.7189
167,723943.2973079759,0.00010268532698705275,MAR3.9_CSIRO-Mk3.6_rcp85_ocean_1960-2100_v4.nc,RACMO2.3p2_ERA5_FGRN055_1940_2023.nc,0.0003594811707962632,1.1343803451519252,0.5072862033763966,1.5677508101544522,,2.2576241,3.292684,0.86209184,0.011829698,12.635759,44.833206,-184.52356,41.6749
168,740000.489153355,8.011660622253745e-05,MAR3.9_ACCESS1-3_rcp85_ocean_1960-2100_v4.nc,HIRHAM5-monthly-ERA5_1975_2021.nc,0.0002707138056312538,1.4254515481188483,0.785834351058178,1.7241932156738227,,3.108763,3.294757,0.7535897,0.017379533,6.6533117,44.313366,-453.49973,197.14316
169,405468.37560206925,9.700031428868592e-05,MAR3.9_MIROC-ESM-CHEM_rcp26_ocean_1960-2100_v4.nc,RACMO2.3p2_ERA5_FGRN055_1940_2023.nc,0.0003231864025440804,1.3036613713956835,0.5198366067560658,1.7823978969475087,,2.1377785,3.2495732,0.8120099,0.014718241,9.037005,43.03571,-335.9158,215.5075
170,387155.5211695479,0.0001352397779153208,MAR3.9_ACCESS1-3_rcp85_ocean_1960-2100_v4.nc,RACMO2.3p2_ERA5_FGRN055_1940_2023.nc,0.00028855425731042004,1.6146948440105047,0.4741077254734901,1.7073672076111661,pism_g450m_frontretreat_calfin_1972_2019.nc,3.3477542,3.3366272,0.83536786,0.019905815,6.566871,42.091476,-330.98718,81.71768
171,550899.90246728,0.00012371502863914966,MAR3.9_NorESM1-M_rcp85_ocean_1960-2100_v4.nc,MARv3.14-monthly-ERA5_1940_2023.nc,0.0003261295631847147,1.4356538325305912,0.579544169727227,1.3116728398461694,pism_g450m_frontretreat_calfin_1972_2019.nc,2.6107411,3.2793894,0.66669995,0.0154275205,5.8132725,43.479366,-507.61093,272.75058
172,341767.1960487311,0.00012812470203194074,MAR3.9_ACCESS1-3_rcp85_ocean_1960-2100_v4.nc,MARv3.14-monthly-ERA5_1940_2023.nc,0.0002635164666057797,1.1473203188475811,0.35992765593569853,1.1244798379647847,,2.8401284,3.299396,0.638009,0.016003855,10.49978,43.001476,-360.00934,138.96835
173,578834.6478229372,0.00010955560058757588,MAR3.9_CSIRO-Mk3.6_rcp85_ocean_1960-2100_v4.nc,HIRHAM5-monthly-ERA5_1975_2021.nc,0.00026258479442016995,1.149290853363751,0.591856996559798,1.5595054744832288,pism_g450m_frontretreat_calfin_1972_2019.nc,2.8269641,3.2218337,0.7251391,0.016996615,6.388919,44.250977,-361.91397,55.69762
174,407227.7805683475,0.0001211487551281343,MAR3.9_CNRM-CM6_ssp126_ocean_1960-2100_v4.nc,HIRHAM5-monthly-ERA5_1975_2021.nc,0.00027873586316660504,1.5931513760207032,0.7372723276767521,1.1866885742866564,pism_g450m_frontretreat_calfin_1972_2019.nc,2.6476903,3.3060625,0.5284504,0.02421962,6.9696965,41.93419,-485.38425,464.94678
175,753581.876521867,9.907301320303679e-05,MAR3.9_CSIRO-Mk3.6_rcp85_ocean_1960-2100_v4.nc,RACMO2.3p2_ERA5_FGRN055_1940_2023.nc,0.00031236671007065935,1.0863950741976112,0.3386820413388226,1.449083593343409,,2.9082518,3.3162975,0.7709426,0.02141887,6.2653837,42.92202,-268.3109,297.24155
176,774819.2630603835,0.0001417024481056244,MAR3.9_IPSL-CM5-MR_rcp85_ocean_1960-2100_v4.nc,HIRHAM5-monthly-ERA5_1975_2021.nc,0.0002667895571414101,1.089176432215861,0.3049723114946683,1.5900347961230694,,2.6479099,3.2706845,0.5505592,0.019570487,10.151475,44.202644,-429.4573,308.82684
177,778284.1954702192,8.726627385045653e-05,MAR3.9_NorESM1-M_rcp85_ocean_1960-2100_v4.nc,HIRHAM5-monthly-ERA5_1975_2021.nc,0.00034632765209114357,1.0649033999444637,0.5101380242321949,1.7050896742024946,,2.8670216,3.2703304,0.7281173,0.023713,6.474167,40.629467,-379.9155,505.69888
178,413763.5777144414,0.00011587312600420008,MAR3.9_UKESM1-CM6_ssp585_ocean_1960-2100_v4.nc,RACMO2.3p2_ERA5_FGRN055_1940_2023.nc,0.00033885156558712947,1.1198161282285708,0.5867250610779524,1.159895706872927,,2.9460201,3.3568406,0.66119766,0.020834086,9.652975,43.728477,-403.2642,331.48883
179,458519.90441990574,0.00012842611613933627,MAR3.9_CNRM-ESM2_ssp585_ocean_1960-2100_v4.nc,HIRHAM5-monthly-ERA5_1975_2021.nc,0.0002879684336248596,1.3278535452334155,0.4173380623154576,1.5113184824777552,pism_g450m_frontretreat_calfin_1972_2019.nc,2.7467449,3.3582063,0.7695097,0.021939214,8.76759,41.24089,-242.21556,403.44604
180,663835.493182336,0.00011463622518684125,MAR3.9_NorESM1-M_rcp85_ocean_1960-2100_v4.nc,HIRHAM5-monthly-ERA5_1975_2021.nc,0.00031421542716902694,1.0924843993711466,0.7816863976276673,1.291638955596694,pism_g450m_frontretreat_calfin_1972_2019.nc,2.9380014,3.3192093,0.8362662,0.023638291,5.269932,43.553387,-298.4543,250.34616
181,583446.320218897,0.0001388698745539333,MAR3.9_CNRM-CM6_ssp126_ocean_1960-2100_v4.nc,HIRHAM5-monthly-ERA5_1975_2021.nc,0.00030958495573216833,1.4570018122267137,0.6693361512979538,1.5128045576806055,pism_g450m_frontretreat_calfin_1972_2019.nc,2.7893507,3.240286,0.72250134,0.02317626,6.3576202,42.601658,-366.4077,264.05356
182,659155.7302035161,0.00014293046162618833,MAR3.9_CSIRO-Mk3.6_rcp85_ocean_1960-2100_v4.nc,MARv3.14-monthly-ERA5_1940_2023.nc,0.00035618657438704924,1.01855395607707,0.3555882732799723,1.1667534296987765,pism_g450m_frontretreat_calfin_1972_2019.nc,2.2046137,3.2224052,0.85141987,0.015477491,8.297091,41.16691,-256.80243,244.94487
183,392228.93111854105,0.00010276597075285406,MAR3.9_UKESM1-CM6_ssp585_ocean_1960-2100_v4.nc,HIRHAM5-monthly-ERA5_1975_2021.nc,0.00024193082276879863,1.3003211439322677,0.8047841166587129,1.271481155528427,,1.913308,3.3641224,0.71538293,0.019406436,7.7922134,41.523632,-748.7066,707.40924
184,606256.5735419758,0.00014839337225775926,MAR3.9_CNRM-CM6_ssp126_ocean_1960-2100_v4.nc,RACMO2.3p2_ERA5_FGRN055_1940_2023.nc,0.0003358567818104964,1.4996046594292607,0.6359778809870487,1.2355808629324936,,2.3475127,3.320783,0.77912635,0.014172704,5.2220917,43.95079,-535.3659,267.3423
185,676749.0513037441,0.00010450022356192623,MAR3.9_MIROC-ESM-CHEM_rcp26_ocean_1960-2100_v4.nc,RACMO2.3p2_ERA5_FGRN055_1940_2023.nc,0.0002749493303406897,1.178056002080073,0.6686227192608261,1.264561057353193,,2.3883438,3.283616,0.78815496,0.020206867,7.2789426,42.12378,-313.9257,395.77856
186,529462.4464439277,0.00010202865270182277,MAR3.9_HadGEM2-ES_rcp85_ocean_1960-2100_v4.nc,MARv3.14-monthly-ERA5_1940_2023.nc,0.00024780894782182094,1.505144713462958,0.4872513352631206,1.6494681783538754,pism_g450m_frontretreat_calfin_1972_2019.nc,2.594964,3.3290746,0.8422605,0.015655236,11.104024,41.310375,-376.4106,134.46614
187,306809.2928807812,9.35570339218312e-05,MAR3.9_NorESM1-M_rcp85_ocean_1960-2100_v4.nc,HIRHAM5-monthly-ERA5_1975_2021.nc,0.00033774270491256135,1.6562543207068054,0.7560393376359575,1.7232310869877119,pism_g450m_frontretreat_calfin_1972_2019.nc,2.773586,3.3650098,0.887577,0.0200652,6.456858,43.61138,-352.38742,197.39223
188,575315.2426624834,0.00011670692100746404,MAR3.9_HadGEM2-ES_rcp85_ocean_1960-2100_v4.nc,RACMO2.3p2_ERA5_FGRN055_1940_2023.nc,0.0003160847385656958,1.0441423115800406,0.765842390786336,1.6244203566353124,pism_g450m_frontretreat_calfin_1972_2019.nc,2.4625459,3.3171809,0.8807277,0.016157366,5.9621396,41.70781,-382.66574,83.85599
189,678539.666486759,9.920231242451259e-05,MAR3.9_HadGEM2-ES_rcp85_ocean_1960-2100_v4.nc,RACMO2.3p2_ERA5_FGRN055_1940_2023.nc,0.0002517452305108149,1.380632963197475,0.6553114955114547,1.7826283449791962,pism_g450m_frontretreat_calfin_1972_2019.nc,2.6918993,3.3605773,0.7004839,0.028138936,7.507989,40.63372,-303.9725,482.33502
190,430327.5420952777,0.0001253833789300411,MAR3.9_MIROC-ESM-CHEM_rcp26_ocean_1960-2100_v4.nc,HIRHAM5-monthly-ERA5_1975_2021.nc,0.0002977547932833065,1.2933713051447253,0.30794801218044715,1.4620513978792011,pism_g450m_frontretreat_calfin_1972_2019.nc,2.3044322,3.333848,0.86487126,0.020304263,6.5162,41.726078,-237.32965,115.164536
191,674193.8187275135,0.0001068478826585269,MAR3.9_CNRM-ESM2_ssp585_ocean_1960-2100_v4.nc,HIRHAM5-monthly-ERA5_1975_2021.nc,0.00030265352318796507,1.4334748493643164,0.8012025503067528,1.73647473845569,,3.189879,3.3343363,0.6985529,0.021566581,7.023372,42.700115,-348.44458,307.36615
192,505410.99371081754,0.0001265609951093021,MAR3.9_HadGEM2-ES_rcp85_ocean_1960-2100_v4.nc,HIRHAM5-monthly-ERA5_1975_2021.nc,0.0003039392157599279,1.3414479932213172,0.6699063471493116,1.1117708853895534,pism_g450m_frontretreat_calfin_1972_2019.nc,2.6370015,3.275465,0.84695536,0.017116984,7.305781,41.019756,-277.2495,178.83456
193,696856.5006903338,0.00012512385220127758,MAR3.9_NorESM1-M_rcp85_ocean_1960-2100_v4.nc,RACMO2.3p2_ERA5_FGRN055_1940_2023.nc,0.00025808838551843815,1.240076854070417,0.48162920979896057,1.2949706958909997,,1.958998,3.3022497,0.89182174,0.01448711,8.32994,42.168854,-356.6772,233.96245
194,365117.92113946227,0.00012893311857784017,MAR3.9_UKESM1-CM6_ssp585_ocean_1960-2100_v4.nc,MARv3.14-monthly-ERA5_1940_2023.nc,0.0002796473264700852,1.3686235138748892,0.8173351063676764,1.230532289068328,pism_g450m_frontretreat_calfin_1972_2019.nc,2.6093712,3.2627442,0.7977152,0.014461585,5.136194,42.65143,-437.8085,237.93886
195,423393.95450257574,0.00010559366816676296,MAR3.9_UKESM1-CM6_ssp585_ocean_1960-2100_v4.nc,HIRHAM5-monthly-ERA5_1975_2021.nc,0.0003223318783425402,1.6757434390605757,0.8302555510329399,1.5214615925786485,,2.1651962,3.3367403,0.7911766,0.013001034,6.3734465,42.003937,-406.97955,51.130234
196,526646.8033662918,0.00014954054593170559,MAR3.9_CNRM-ESM2_ssp585_ocean_1960-2100_v4.nc,RACMO2.3p2_ERA5_FGRN055_1940_2023.nc,0.0003158740490441772,1.2910311830364223,0.7933808492175947,1.121538015756489,pism_g450m_frontretreat_calfin_1972_2019.nc,2.3872268,3.3627126,0.8910192,0.016105335,9.726648,42.579712,-295.26617,275.43396
197,315503.89580791246,0.00012263992910561134,MAR3.9_MIROC-ESM-CHEM_rcp26_ocean_1960-2100_v4.nc,MARv3.14-monthly-ERA5_1940_2023.nc,0.0003135071449038829,1.6694879470737876,0.6159263216751761,1.1761253050684268,pism_g450m_frontretreat_calfin_1972_2019.nc,2.962746,3.349735,0.82128155,0.01912482,9.586511,42.316624,-309.62665,385.4134
198,785733.3673117191,0.0001055575673080986,MAR3.9_UKESM1-CM6_ssp585_ocean_1960-2100_v4.nc,RACMO2.3p2_ERA5_FGRN055_1940_2023.nc,0.00034567675990978706,1.6789826269581742,0.8326282043056739,1.392250256561459,pism_g450m_frontretreat_calfin_1972_2019.nc,2.7744305,3.2924988,0.6202906,0.015751645,11.703596,43.84414,-353.4037,87.18464
199,412714.71309525776,0.00012331344948551392,MAR3.9_CNRM-CM6_ssp126_ocean_1960-2100_v4.nc,MARv3.14-monthly-ERA5_1940_2023.nc,0.00034734770902716,1.5026757131697062,0.5539827917589044,1.1799571886945144,pism_g450m_frontretreat_calfin_1972_2019.nc,2.727877,3.3246136,0.716857,0.021861963,6.3928723,44.2648,-412.4896,296.77972
200,524037.79602947476,0.00012140443048428773,MAR3.9_IPSL-CM5-MR_rcp85_ocean_1960-2100_v4.nc,MARv3.14-monthly-ERA5_1940_2023.nc,0.00032367568475916695,1.3525152720690512,0.7699292795481216,1.5560413010023049,pism_g450m_frontretreat_calfin_1972_2019.nc,1.8194323,3.3182974,0.70752996,0.016552364,12.801596,41.907127,-415.83014,429.4648
201,549460.3854707205,7.895724638197711e-05,MAR3.9_CNRM-CM6_ssp126_ocean_1960-2100_v4.nc,HIRHAM5-monthly-ERA5_1975_2021.nc,0.00033730090880511673,1.574168834898065,0.49492616602036793,1.5689678813428254,pism_g450m_frontretreat_calfin_1972_2019.nc,2.63358,3.2450647,0.86273915,0.018730322,7.2443905,40.515606,-320.74042,315.38202
202,444899.6829401015,9.40035264207653e-05,MAR3.9_NorESM1-M_rcp85_ocean_1960-2100_v4.nc,HIRHAM5-monthly-ERA5_1975_2021.nc,0.00029871355137871096,1.5816773050116522,0.5278966072831697,1.4960337986522325,,2.7269764,3.2841313,0.69192445,0.01815475,6.301605,43.32002,-502.91095,193.87894
203,437974.5971121374,0.00010456342293294953,MAR3.9_CSIRO-Mk3.6_rcp85_ocean_1960-2100_v4.nc,HIRHAM5-monthly-ERA5_1975_2021.nc,0.000320328181184866,1.0372643262951198,0.5337582932506562,1.2180454416086859,pism_g450m_frontretreat_calfin_1972_2019.nc,2.4100752,3.3546505,0.8336266,0.01828909,5.2139378,40.72452,-431.92758,255.98172
204,304453.9101351113,9.458123379892891e-05,MAR3.9_IPSL-CM5-MR_rcp85_ocean_1960-2100_v4.nc,HIRHAM5-monthly-ERA5_1975_2021.nc,0.0003089069457788761,1.5940477558709114,0.7072127797500922,1.172801540968196,,2.8262916,3.280541,0.87455285,0.020194195,7.6641474,44.275272,-245.02846,189.06694
205,615958.4643599445,9.802506257442677e-05,MAR3.9_UKESM1-CM6_ssp585_ocean_1960-2100_v4.nc,HIRHAM5-monthly-ERA5_1975_2021.nc,0.00032827981563169587,1.2990421197615354,0.5898678608613535,1.7733342917557557,,2.506719,3.3735895,0.75450206,0.017545905,6.542115,43.21049,-621.9099,278.0674
206,459837.1701025963,0.00010879431215371198,MAR3.9_IPSL-CM5-MR_rcp85_ocean_1960-2100_v4.nc,RACMO2.3p2_ERA5_FGRN055_1940_2023.nc,0.00028327960392927806,1.1587447318028123,0.44977658136386756,1.6837925448250983,pism_g450m_frontretreat_calfin_1972_2019.nc,2.3182094,3.2742026,0.58303404,0.017200759,6.461947,44.495857,-476.34543,185.3251
207,427276.3134640764,0.00014182094152220053,MAR3.9_CNRM-ESM2_ssp585_ocean_1960-2100_v4.nc,RACMO2.3p2_ERA5_FGRN055_1940_2023.nc,0.00027092732377923017,1.038065194659409,0.4426028596370062,1.223642680849494,pism_g450m_frontretreat_calfin_1972_2019.nc,2.708161,3.3198483,0.8261451,0.018151743,9.177175,43.15704,-261.8166,263.39865
208,459163.9888314475,0.00011013703652225724,MAR3.9_ACCESS1-3_rcp85_ocean_1960-2100_v4.nc,RACMO2.3p2_ERA5_FGRN055_1940_2023.nc,0.00032485457453080283,1.097253603701226,0.5441132755254316,1.6783608511484114,pism_g450m_frontretreat_calfin_1972_2019.nc,2.941097,3.3034184,0.7000839,0.024842838,7.530756,42.799267,-303.46252,585.6062
209,502913.0766207664,0.00010675796472519106,MAR3.9_CSIRO-Mk3.6_rcp85_ocean_1960-2100_v4.nc,MARv3.14-monthly-ERA5_1940_2023.nc,0.00030447867332570363,1.6096827275851533,0.3783758957079207,1.58888617492609,,2.1514437,3.3080366,0.785159,0.015043507,8.080501,42.298283,-331.65738,199.87279
210,411222.491160313,0.00011619228119514523,MAR3.9_ACCESS1-3_rcp85_ocean_1960-2100_v4.nc,MARv3.14-monthly-ERA5_1940_2023.nc,0.00027108081109725933,1.1011170211479513,0.7058810714715067,1.7062849428732383,,2.9123383,3.3117964,0.7629576,0.020663157,6.314068,41.231483,-393.93268,351.80695
211,766095.2878325894,9.730909277091362e-05,MAR3.9_NorESM1-M_rcp85_ocean_1960-2100_v4.nc,RACMO2.3p2_ERA5_FGRN055_1940_2023.nc,0.00029197933906249633,1.682244128646727,0.5437628198694968,1.1536687631563611,pism_g450m_frontretreat_calfin_1972_2019.nc,3.1550639,3.343423,0.6153124,0.01969498,7.6917925,43.08797,-368.092,159.69772
212,374327.7692992611,0.00011380159267401633,MAR3.9_HadGEM2-ES_rcp85_ocean_1960-2100_v4.nc,RACMO2.3p2_ERA5_FGRN055_1940_2023.nc,0.0002693638754568726,1.41932805510955,0.5357363774951414,1.4381239610657817,pism_g450m_frontretreat_calfin_1972_2019.nc,2.5357726,3.2680404,0.77732205,0.01599471,5.7004604,44.398743,-350.18854,70.4276
213,669396.9217853432,0.0001387898737749455,MAR3.9_CNRM-CM6_ssp126_ocean_1960-2100_v4.nc,HIRHAM5-monthly-ERA5_1975_2021.nc,0.0002780484530628842,1.6559009809703036,0.30877955934486745,1.2614683192000111,,2.782522,3.324269,0.66156286,0.026065687,7.187418,41.170612,-344.28864,367.2104
214,363998.01280398807,8.26954918138885e-05,MAR3.9_UKESM1-CM6_ssp585_ocean_1960-2100_v4.nc,HIRHAM5-monthly-ERA5_1975_2021.nc,0.0003225287759604204,1.1752168046090972,0.7914932889133655,1.4313295756899498,,1.4275546,3.3275335,0.83149946,0.01640133,5.1618767,41.522102,-432.90707,295.30148
215,797464.2999220489,0.00014966892040621285,MAR3.9_NorESM1-M_rcp85_ocean_1960-2100_v4.nc,RACMO2.3p2_ERA5_FGRN055_1940_2023.nc,0.0002873682580602054,1.6024385997776578,0.7261464463049307,1.2733058116994032,,2.8800569,3.298592,0.5433963,0.020983059,8.900244,44.313095,-468.40744,396.63184
216,712722.8442569369,9.268247160433983e-05,MAR3.9_UKESM1-CM6_ssp585_ocean_1960-2100_v4.nc,MARv3.14-monthly-ERA5_1940_2023.nc,0.0003593999165360989,1.210362190539276,0.4614069239271996,1.3060518171610571,pism_g450m_frontretreat_calfin_1972_2019.nc,2.4951525,3.3216724,0.82554376,0.018990899,5.33393,44.29521,-297.86325,159.16963
217,508780.2292298135,0.0001015652704830983,MAR3.9_UKESM1-CM6_ssp585_ocean_1960-2100_v4.nc,RACMO2.3p2_ERA5_FGRN055_1940_2023.nc,0.0002723477672652913,1.330985807070876,0.4664684801461335,1.540596844157188,,3.1732202,3.3088906,0.80029833,0.020112958,9.890916,42.467182,-410.08688,314.39996
218,765513.9040248286,0.00010084914988992989,MAR3.9_CSIRO-Mk3.6_rcp85_ocean_1960-2100_v4.nc,RACMO2.3p2_ERA5_FGRN055_1940_2023.nc,0.00031629341877347053,1.616860234048604,0.755354706358322,1.7798753519609813,pism_g450m_frontretreat_calfin_1972_2019.nc,2.6068132,3.3034663,0.6413948,0.016438846,8.836695,44.6225,-432.75552,236.57088
219,657286.353696675,0.00012042676106685822,MAR3.9_ACCESS1-3_rcp85_ocean_1960-2100_v4.nc,HIRHAM5-monthly-ERA5_1975_2021.nc,0.000252191741065226,1.0837293575658928,0.7018379895118563,1.4524011495470024,pism_g450m_frontretreat_calfin_1972_2019.nc,2.617258,3.3146453,0.86262304,0.019189289,6.6075883,43.27711,-304.1345,203.96243
220,434174.6760876023,0.00010341396381141919,MAR3.9_ACCESS1-3_rcp85_ocean_1960-2100_v4.nc,MARv3.14-monthly-ERA5_1940_2023.nc,0.00024052666940821893,1.6965956967747227,0.4059662914390837,1.671522063258398,pism_g450m_frontretreat_calfin_1972_2019.nc,2.6180396,3.274773,0.80988765,0.020234447,9.096885,41.73826,-324.39865,600.9916
221,390139.3819031233,0.00013281616679777507,MAR3.9_MIROC-ESM-CHEM_rcp26_ocean_1960-2100_v4.nc,HIRHAM5-monthly-ERA5_1975_2021.nc,0.00028833851858415795,1.0465686979805109,0.6865972368535721,1.4662354857887556,pism_g450m_frontretreat_calfin_1972_2019.nc,2.915736,3.3257537,0.6768499,0.02120785,6.5919013,41.792027,-403.4277,397.8955
222,326416.32201113354,0.00011048190718071668,MAR3.9_HadGEM2-ES_rcp85_ocean_1960-2100_v4.nc,RACMO2.3p2_ERA5_FGRN055_1940_2023.nc,0.00025262117164783653,1.5174027915508153,0.5764224399267196,1.767144111932743,,2.509982,3.3000238,0.6599476,0.02145322,7.6565766,40.7574,-276.30515,102.997406
223,618194.6839572132,9.361784183072193e-05,MAR3.9_CNRM-CM6_ssp126_ocean_1960-2100_v4.nc,HIRHAM5-monthly-ERA5_1975_2021.nc,0.0003321161072678549,1.475445338929843,0.8373106508324393,1.1280651501694419,pism_g450m_frontretreat_calfin_1972_2019.nc,2.0404167,3.3160105,0.72270197,0.013487905,6.7254906,44.800102,-314.3549,85.968666
224,699950.9998465722,8.202623194659383e-05,MAR3.9_UKESM1-CM6_ssp585_ocean_1960-2100_v4.nc,RACMO2.3p2_ERA5_FGRN055_1940_2023.nc,0.0003060200130304607,1.6059168642585429,0.3517472998499898,1.6787899232260033,,2.597336,3.338637,0.6495442,0.017129716,9.960751,42.207813,-486.5843,226.67665
225,790671.0959552573,9.999675312679638e-05,MAR3.9_ACCESS1-3_rcp85_ocean_1960-2100_v4.nc,HIRHAM5-monthly-ERA5_1975_2021.nc,0.0003459683743354413,1.4997989981637696,0.6519337484100436,1.1207490348008604,pism_g450m_frontretreat_calfin_1972_2019.nc,2.3234768,3.2675164,0.63595176,0.019988952,7.4669147,41.066807,-336.53574,161.65536
226,601347.0905490121,7.6376186449404e-05,MAR3.9_NorESM1-M_rcp85_ocean_1960-2100_v4.nc,RACMO2.3p2_ERA5_FGRN055_1940_2023.nc,0.00027026025879744737,1.5776776739944518,0.5713411040488898,1.3872789806037975,,2.5535235,3.2883656,0.8637551,0.01596601,8.006879,42.28519,-452.20453,229.42484
227,384448.65851648245,0.0001178462104226281,MAR3.9_CNRM-CM6_ssp126_ocean_1960-2100_v4.nc,MARv3.14-monthly-ERA5_1940_2023.nc,0.00029058661164135666,1.0761959935834708,0.8184118012220363,1.174189662226321,pism_g450m_frontretreat_calfin_1972_2019.nc,2.9482913,3.3240745,0.7965374,0.022834228,5.86151,41.61981,-207.28407,260.64487
228,514316.7949055211,0.00010004657190462466,MAR3.9_CSIRO-Mk3.6_rcp85_ocean_1960-2100_v4.nc,RACMO2.3p2_ERA5_FGRN055_1940_2023.nc,0.0002690848457682583,1.3445348666999495,0.39563187411818235,1.1531981133833347,,2.602314,3.298199,0.81819856,0.016864806,8.887,44.297436,-315.6679,125.30381
229,496494.09459147125,0.00014082705112579026,MAR3.9_UKESM1-CM6_ssp585_ocean_1960-2100_v4.nc,HIRHAM5-monthly-ERA5_1975_2021.nc,0.00029040763548153275,1.1560098861277455,0.36776914690051254,1.7310810403501233,,2.8095808,3.3228557,0.73902255,0.026746038,5.667349,41.72337,-354.26993,503.91403
230,367090.9639612571,0.00013900803533251383,MAR3.9_CNRM-CM6_ssp126_ocean_1960-2100_v4.nc,RACMO2.3p2_ERA5_FGRN055_1940_2023.nc,0.00026129234098453503,1.0949307086942397,0.7747498293209235,1.23779974947573,pism_g450m_frontretreat_calfin_1972_2019.nc,2.443376,3.2618787,0.6612381,0.01537746,12.563494,42.82778,-213.64038,85.71495
231,603580.1953951903,0.00011567156868911126,MAR3.9_MIROC-ESM-CHEM_rcp26_ocean_1960-2100_v4.nc,HIRHAM5-monthly-ERA5_1975_2021.nc,0.0002514499446286136,1.3469792077158116,0.6095849905103573,1.4107102775380762,pism_g450m_frontretreat_calfin_1972_2019.nc,2.2244916,3.3169706,0.6534149,0.016227562,10.232512,43.833233,-539.8787,433.29
232,621462.5272428434,0.0001271533701885245,MAR3.9_NorESM1-M_rcp85_ocean_1960-2100_v4.nc,RACMO2.3p2_ERA5_FGRN055_1940_2023.nc,0.000295659354772875,1.1692813258870896,0.7353659650820192,1.1617547778536943,,2.618255,3.339352,0.87908506,0.02305535,6.185132,43.64367,-226.19057,246.42055
233,763991.9440722319,0.00012313492927617573,MAR3.9_CSIRO-Mk3.6_rcp85_ocean_1960-2100_v4.nc,MARv3.14-monthly-ERA5_1940_2023.nc,0.0002821342119136238,1.4848607233790547,0.7407777204351575,1.4504881206535762,,2.5655644,3.2333148,0.57118756,0.015446977,10.349258,42.970028,-363.25323,191.11029
234,683333.9868198556,0.00012545840550494235,MAR3.9_UKESM1-CM6_ssp585_ocean_1960-2100_v4.nc,HIRHAM5-monthly-ERA5_1975_2021.nc,0.00029652822605872404,1.3104803478689102,0.5491757692562701,1.688448631713575,pism_g450m_frontretreat_calfin_1972_2019.nc,2.642386,3.3453143,0.7926102,0.018893551,8.247604,42.502563,-384.43555,182.55005
235,617965.8118719503,0.00013800378539195746,MAR3.9_CNRM-ESM2_ssp585_ocean_1960-2100_v4.nc,HIRHAM5-monthly-ERA5_1975_2021.nc,0.00034176911379305887,1.4726392379036835,0.5464202306789983,1.2797474198152914,pism_g450m_frontretreat_calfin_1972_2019.nc,2.5885005,3.2822692,0.66352123,0.015152887,6.4240675,42.0926,-578.6804,161.69682
236,495833.7671345968,0.00010898078301583475,MAR3.9_ACCESS1-3_rcp85_ocean_1960-2100_v4.nc,RACMO2.3p2_ERA5_FGRN055_1940_2023.nc,0.00027388313445316013,1.296546865539479,0.5687306875927001,1.1917433634977284,,2.469266,3.331444,0.5770739,0.0231392,6.564318,44.071484,-785.78723,884.8795
237,681048.1713692837,0.00014562920493163252,MAR3.9_CNRM-CM6_ssp126_ocean_1960-2100_v4.nc,MARv3.14-monthly-ERA5_1940_2023.nc,0.0003306606731942547,1.6400144033063229,0.7821693235483176,1.3580923787012045,pism_g450m_frontretreat_calfin_1972_2019.nc,2.7754624,3.3101323,0.7483141,0.01813688,5.577172,44.71674,-495.58603,362.40903
238,787449.325980732,0.00010505997561236424,MAR3.9_CSIRO-Mk3.6_rcp85_ocean_1960-2100_v4.nc,MARv3.14-monthly-ERA5_1940_2023.nc,0.00025511927363872897,1.5634588193617742,0.49331868745045104,1.5275604270878795,pism_g450m_frontretreat_calfin_1972_2019.nc,2.2561312,3.1550558,0.70842046,0.015515668,13.095075,44.84087,-195.93597,303.35022
239,686588.4868972127,9.681331946843944e-05,MAR3.9_ACCESS1-3_rcp85_ocean_1960-2100_v4.nc,HIRHAM5-monthly-ERA5_1975_2021.nc,0.00033487690334178507,1.5490096054074636,0.4369982895943034,1.7265855226860336,pism_g450m_frontretreat_calfin_1972_2019.nc,2.4125805,3.367906,0.894184,0.02059926,5.9717216,44.60275,-572.86835,691.0433
240,482650.41712028056,0.0001302252349812535,MAR3.9_ACCESS1-3_rcp85_ocean_1960-2100_v4.nc,MARv3.14-monthly-ERA5_1940_2023.nc,0.00032942324374918785,1.2201276341077378,0.5939439966443515,1.6188489263784687,pism_g450m_frontretreat_calfin_1972_2019.nc,3.0914874,3.317075,0.8025558,0.023181757,7.7461715,41.604828,-254.99374,159.81325
241,762436.0687694855,0.0001210727945444054,MAR3.9_UKESM1-CM6_ssp585_ocean_1960-2100_v4.nc,RACMO2.3p2_ERA5_FGRN055_1940_2023.nc,0.0003275029291156639,1.6411112523152533,0.6285943851857444,1.178141419422539,,2.2190533,3.28667,0.78145623,0.016355691,8.961017,42.436256,-336.23416,196.6567
242,723451.5765321532,0.00010523992445591731,MAR3.9_CNRM-ESM2_ssp585_ocean_1960-2100_v4.nc,MARv3.14-monthly-ERA5_1940_2023.nc,0.0002447731165286303,1.588893698304335,0.6327318635867705,1.4242127284409656,pism_g450m_frontretreat_calfin_1972_2019.nc,2.5235035,3.371534,0.9260223,0.015139246,6.625782,44.36047,-566.1841,399.18326
243,343688.3631495319,0.00013660000990238117,MAR3.9_CNRM-CM6_ssp126_ocean_1960-2100_v4.nc,HIRHAM5-monthly-ERA5_1975_2021.nc,0.00025520789456378895,1.1109454091647692,0.6938142757323412,1.52082622860251,pism_g450m_frontretreat_calfin_1972_2019.nc,3.1307747,3.324849,0.77952623,0.019977694,10.167121,40.964912,-280.89108,204.02965
244,504693.55564346584,0.00014927418970305775,MAR3.9_CNRM-ESM2_ssp585_ocean_1960-2100_v4.nc,HIRHAM5-monthly-ERA5_1975_2021.nc,0.00024011234121425898,1.387926540487784,0.7863045985810907,1.35002046459273,,2.6725216,3.2479625,0.7740443,0.015966969,6.7161593,42.507523,-340.2758,238.38979
245,512178.4874590048,0.00013456259947471704,MAR3.9_NorESM1-M_rcp85_ocean_1960-2100_v4.nc,HIRHAM5-monthly-ERA5_1975_2021.nc,0.0003481312631306206,1.0510139906793394,0.7307853533931155,1.7593087749611844,pism_g450m_frontretreat_calfin_1972_2019.nc,2.4616032,3.308114,0.6112552,0.016283417,6.2479386,43.30009,-521.4965,209.73444
246,749760.4758394919,7.660393624158466e-05,MAR3.9_CNRM-ESM2_ssp585_ocean_1960-2100_v4.nc,MARv3.14-monthly-ERA5_1940_2023.nc,0.0003500342132741017,1.0159741586676734,0.6910135290690702,1.7082921140169849,pism_g450m_frontretreat_calfin_1972_2019.nc,2.406331,3.3351107,0.741956,0.019284906,5.6125894,42.028214,-372.1069,397.70984
247,305177.79466510256,9.597270516747016e-05,MAR3.9_CNRM-ESM2_ssp585_ocean_1960-2100_v4.nc,RACMO2.3p2_ERA5_FGRN055_1940_2023.nc,0.00026794481690896684,1.4750985999756234,0.6896015829174231,1.2356834003665726,pism_g450m_frontretreat_calfin_1972_2019.nc,2.7325943,3.3420212,0.8782078,0.016972993,7.6769543,43.615513,-366.47678,161.29106
248,486413.84096443304,0.00012846869049583297,MAR3.9_UKESM1-CM6_ssp585_ocean_1960-2100_v4.nc,HIRHAM5-monthly-ERA5_1975_2021.nc,0.00033812439189968613,1.6444620347846954,0.32930956605413886,1.4086022709393127,pism_g450m_frontretreat_calfin_1972_2019.nc,2.196721,3.332785,0.8040118,0.014782608,7.275669,40.52528,-442.82803,25.366096
249,722864.2296205238,0.0001392529823594576,MAR3.9_CSIRO-Mk3.6_rcp85_ocean_1960-2100_v4.nc,RACMO2.3p2_ERA5_FGRN055_1940_2023.nc,0.0003177097245745733,1.4891570384490016,0.5227993257627569,1.7209314898686623,,1.9640477,3.2498407,0.6974224,0.015073549,5.6884274,42.338818,-412.84824,124.163475
250,633273.8017208688,7.822274202651259e-05,MAR3.9_CSIRO-Mk3.6_rcp85_ocean_1960-2100_v4.nc,HIRHAM5-monthly-ERA5_1975_2021.nc,0.0003545716171072026,1.4704422317326364,0.5299294631448604,1.6505505813446457,pism_g450m_frontretreat_calfin_1972_2019.nc,3.0930994,3.3298798,0.90252644,0.020580716,12.839976,44.074497,-291.65878,176.18842
251,644877.708237177,0.00014140418508698147,MAR3.9_HadGEM2-ES_rcp85_ocean_1960-2100_v4.nc,RACMO2.3p2_ERA5_FGRN055_1940_2023.nc,0.0002749786390399359,1.0313415225370066,0.6592415694995257,1.7954754437584646,pism_g450m_frontretreat_calfin_1972_2019.nc,2.8127623,3.2723699,0.59134436,0.02206984,10.394097,42.12635,-344.30243,241.87799
252,389098.95794144226,9.847795158250948e-05,MAR3.9_MIROC-ESM-CHEM_rcp26_ocean_1960-2100_v4.nc,HIRHAM5-monthly-ERA5_1975_2021.nc,0.0003297301836736222,1.5696902590527138,0.5680446532629125,1.5844805075867903,pism_g450m_frontretreat_calfin_1972_2019.nc,2.7218149,3.308562,0.6722906,0.01767352,8.646376,41.35139,-368.3911,176.99124
253,354896.36652291525,0.00010515109169677265,MAR3.9_MIROC-ESM-CHEM_rcp26_ocean_1960-2100_v4.nc,MARv3.14-monthly-ERA5_1940_2023.nc,0.0002648077596260706,1.3368387156219974,0.7982065970146164,1.7886321241529406,pism_g450m_frontretreat_calfin_1972_2019.nc,2.2910783,3.2515683,0.85962963,0.018675135,5.525247,43.04356,-344.95285,397.3024
254,728653.2556225223,9.178996912425173e-05,MAR3.9_CSIRO-Mk3.6_rcp85_ocean_1960-2100_v4.nc,RACMO2.3p2_ERA5_FGRN055_1940_2023.nc,0.00031902856912305143,1.1971174629839538,0.4774051194869917,1.6052489350012107,,2.790892,3.3548658,0.7849713,0.0146736335,6.407812,43.682816,-553.1249,150.1109
255,431419.06245897454,0.00013834967011743202,MAR3.9_UKESM1-CM6_ssp585_ocean_1960-2100_v4.nc,RACMO2.3p2_ERA5_FGRN055_1940_2023.nc,0.0003487754119638009,1.6732998710316702,0.5220168695013074,1.323278935266867,,3.0241463,3.247899,0.8560704,0.024266591,8.126271,40.637806,-346.7286,497.9871
256,344253.711690733,0.0001277395348321636,MAR3.9_NorESM1-M_rcp85_ocean_1960-2100_v4.nc,HIRHAM5-monthly-ERA5_1975_2021.nc,0.0003542748863763635,1.1302919928446813,0.7080644101394195,1.6957618175340583,pism_g450m_frontretreat_calfin_1972_2019.nc,2.1052463,3.3211503,0.53504175,0.01923305,14.550417,42.27628,-472.60077,652.6026
257,658209.0082841289,0.00012207705575946888,MAR3.9_UKESM1-CM6_ssp585_ocean_1960-2100_v4.nc,MARv3.14-monthly-ERA5_1940_2023.nc,0.0002745825058698538,1.6663409115295118,0.4336269314335901,1.7128081705320268,pism_g450m_frontretreat_calfin_1972_2019.nc,2.5642757,3.334339,0.82834584,0.01386394,7.2916594,43.958984,-355.10147,40.398075
258,706177.4421964884,0.00012963518224301946,MAR3.9_CNRM-CM6_ssp126_ocean_1960-2100_v4.nc,MARv3.14-monthly-ERA5_1940_2023.nc,0.00035724350059362133,1.2711738055853785,0.5318787091291055,1.6650827605753913,pism_g450m_frontretreat_calfin_1972_2019.nc,2.6672335,3.3376226,0.67506963,0.021114966,6.5212994,41.452328,-378.8377,293.93732
259,675876.5661293352,8.987709572385317e-05,MAR3.9_MIROC-ESM-CHEM_rcp26_ocean_1960-2100_v4.nc,MARv3.14-monthly-ERA5_1940_2023.nc,0.00028079628575157506,1.181457580224288,0.4410468208127295,1.2484433086692204,pism_g450m_frontretreat_calfin_1972_2019.nc,2.574617,3.3237128,0.81766796,0.02126251,10.33062,41.96137,-247.38373,378.23267
260,670572.5689617929,7.69408283520891e-05,MAR3.9_HadGEM2-ES_rcp85_ocean_1960-2100_v4.nc,MARv3.14-monthly-ERA5_1940_2023.nc,0.00025560065241633085,1.3632430325892169,0.5026945261214593,1.5062315970921127,,2.9189005,3.2917087,0.7494101,0.025110977,7.3865347,42.818695,-322.1689,461.63312
261,338442.51813585643,0.00012172625874612615,MAR3.9_MIROC-ESM-CHEM_rcp26_ocean_1960-2100_v4.nc,HIRHAM5-monthly-ERA5_1975_2021.nc,0.00028809452813292414,1.579282626321795,0.506054836705518,1.1892243874744586,,3.2085369,3.3212466,0.6957619,0.024547463,6.591027,41.321163,-359.65884,447.52924
262,670948.7566668441,9.954555622562228e-05,MAR3.9_CNRM-ESM2_ssp585_ocean_1960-2100_v4.nc,RACMO2.3p2_ERA5_FGRN055_1940_2023.nc,0.0003068941591435887,1.3151683036820248,0.7289498913681791,1.3739065055408786,,2.911858,3.2784345,0.7946681,0.017894562,6.52613,42.491337,-352.64297,209.64336
263,469156.52167836484,0.00012700277452553556,MAR3.9_NorESM1-M_rcp85_ocean_1960-2100_v4.nc,RACMO2.3p2_ERA5_FGRN055_1940_2023.nc,0.000304587239046119,1.2266773664911794,0.421552357542141,1.381189038090378,,2.4575477,3.2891726,0.8512768,0.014072035,8.380636,42.145973,-301.4706,211.48816
264,593700.7364638632,0.0001415953589341037,MAR3.9_CSIRO-Mk3.6_rcp85_ocean_1960-2100_v4.nc,RACMO2.3p2_ERA5_FGRN055_1940_2023.nc,0.0003470885655266051,1.4285352604665265,0.5425056218222323,1.682830717061605,,2.387668,3.2982757,0.7303801,0.024062745,9.512719,42.82728,-146.74747,588.5615
265,499325.48462586815,0.00014682150079883962,MAR3.9_CSIRO-Mk3.6_rcp85_ocean_1960-2100_v4.nc,HIRHAM5-monthly-ERA5_1975_2021.nc,0.00034115926245401897,1.6224825914907801,0.4803130332747628,1.4164402731428374,,2.2098079,3.2266314,0.6399671,0.016654043,6.2849727,40.72612,-363.30057,235.42027
266,372977.45644365705,0.00014595784633192934,MAR3.9_CSIRO-Mk3.6_rcp85_ocean_1960-2100_v4.nc,RACMO2.3p2_ERA5_FGRN055_1940_2023.nc,0.0002907577731573189,1.4557325019193228,0.382211258991564,1.3507150788077051,pism_g450m_frontretreat_calfin_1972_2019.nc,2.5539558,3.3070261,0.8137614,0.018740268,9.406038,40.309216,-298.33694,258.06912
267,613983.3271521756,8.362855937361541e-05,MAR3.9_MIROC-ESM-CHEM_rcp26_ocean_1960-2100_v4.nc,MARv3.14-monthly-ERA5_1940_2023.nc,0.0003400519477319555,1.6460923229808468,0.4992762462881516,1.6402629969582918,,2.1198037,3.256955,0.75908077,0.013371427,5.9806848,42.468933,-410.87332,240.95801
268,645285.9296877983,0.00014513468080393118,MAR3.9_CNRM-ESM2_ssp585_ocean_1960-2100_v4.nc,RACMO2.3p2_ERA5_FGRN055_1940_2023.nc,0.0002583687374237388,1.6542853010844751,0.6571249536146972,1.2883364572173024,pism_g450m_frontretreat_calfin_1972_2019.nc,2.061762,3.3882344,0.7138968,0.019510629,7.887663,44.582535,-706.928,694.53485
269,684392.3719588625,7.676722377995047e-05,MAR3.9_UKESM1-CM6_ssp585_ocean_1960-2100_v4.nc,MARv3.14-monthly-ERA5_1940_2023.nc,0.0002831597119942138,1.5334135912594244,0.6426378862414277,1.6485633556196417,pism_g450m_frontretreat_calfin_1972_2019.nc,2.1873116,3.332278,0.70365304,0.015712515,6.5956497,41.035854,-446.16962,155.63399
270,342202.18172649737,0.00012828823558064557,MAR3.9_CNRM-CM6_ssp126_ocean_1960-2100_v4.nc,MARv3.14-monthly-ERA5_1940_2023.nc,0.00033257413165491275,1.6743113643277732,0.5564868872244887,1.371123643414082,,2.8288713,3.3152537,0.6517404,0.014560413,6.2205167,44.90578,-451.11554,110.08903
271,457599.4234090826,7.815642861467622e-05,MAR3.9_IPSL-CM5-MR_rcp85_ocean_1960-2100_v4.nc,MARv3.14-monthly-ERA5_1940_2023.nc,0.00025722194217821085,1.1503371668961564,0.45321080367141175,1.7903623636236692,pism_g450m_frontretreat_calfin_1972_2019.nc,2.8347142,3.2847035,0.73602414,0.01968612,8.718905,41.873604,-218.32535,276.11777
272,428399.74770145596,0.00010131094628788361,MAR3.9_CNRM-CM6_ssp126_ocean_1960-2100_v4.nc,HIRHAM5-monthly-ERA5_1975_2021.nc,0.00029800266728197925,1.5343616574816634,0.44774046758764496,1.3976144463563767,,2.4856377,3.3153737,0.66380394,0.018369598,5.837542,42.330433,-517.35046,216.15572
273,796360.7062831378,0.00013325701091449697,MAR3.9_ACCESS1-3_rcp85_ocean_1960-2100_v4.nc,RACMO2.3p2_ERA5_FGRN055_1940_2023.nc,0.0003586912848452528,1.2731388028776771,0.6253337920430503,1.4874233733454563,pism_g450m_frontretreat_calfin_1972_2019.nc,3.124773,3.3238208,0.75018936,0.025274392,6.0019293,40.72516,-303.86166,513.1596
274,634896.561700427,8.263625007468149e-05,MAR3.9_NorESM1-M_rcp85_ocean_1960-2100_v4.nc,RACMO2.3p2_ERA5_FGRN055_1940_2023.nc,0.00027146041966303306,1.5856966807291664,0.3233361926393436,1.5374338044077105,pism_g450m_frontretreat_calfin_1972_2019.nc,3.2185228,3.3085454,0.56208384,0.02542628,6.5884466,42.304104,-310.5488,112.21593
275,763194.0914915157,0.00011479793782901305,MAR3.9_UKESM1-CM6_ssp585_ocean_1960-2100_v4.nc,RACMO2.3p2_ERA5_FGRN055_1940_2023.nc,0.00024606583330969556,1.5788935188645563,0.4126736550704354,1.1054713179791351,,2.9504254,3.3066742,0.72651297,0.025011877,7.243463,42.654007,-331.0117,581.98206
276,794581.6220821242,0.0001359142438699975,MAR3.9_CNRM-CM6_ssp126_ocean_1960-2100_v4.nc,HIRHAM5-monthly-ERA5_1975_2021.nc,0.00024242967990457053,1.5755026972933974,0.6152523505467276,1.276271800191237,,2.9491785,3.2994375,0.81128055,0.01615612,5.5994287,42.756714,-359.2312,280.89847
277,582978.8387268927,0.00013222759034286764,MAR3.9_HadGEM2-ES_rcp85_ocean_1960-2100_v4.nc,HIRHAM5-monthly-ERA5_1975_2021.nc,0.00025955920980295883,1.5923742457272614,0.6673748296811248,1.376808398685128,,2.892814,3.280269,0.7261314,0.022610735,9.88127,44.74884,-197.00232,384.492
278,408508.42218299524,9.306267507960316e-05,MAR3.9_ACCESS1-3_rcp85_ocean_1960-2100_v4.nc,HIRHAM5-monthly-ERA5_1975_2021.nc,0.0002605308001982149,1.659199092291809,0.5448656074875036,1.6598807986627762,,3.1756167,3.3048131,0.6699464,0.025109077,8.102688,43.350147,-321.6727,365.24548
279,347687.13311765844,0.0001063940221037766,MAR3.9_UKESM1-CM6_ssp585_ocean_1960-2100_v4.nc,HIRHAM5-monthly-ERA5_1975_2021.nc,0.0002755299479996304,1.537295679477047,0.7120860796746951,1.7096983127468208,,2.235824,3.3203156,0.7799917,0.012931403,8.40522,43.74344,-571.46606,120.456154
280,798257.1346891972,0.0001476617751590674,MAR3.9_UKESM1-CM6_ssp585_ocean_1960-2100_v4.nc,MARv3.14-monthly-ERA5_1940_2023.nc,0.00028050695201455283,1.0964198497898694,0.6110831866912858,1.4569533359400333,,2.2068448,3.2707274,0.7724167,0.015075722,7.07269,41.738766,-285.62973,95.474525
281,340034.02148369,0.00014416646184437274,MAR3.9_MIROC-ESM-CHEM_rcp26_ocean_1960-2100_v4.nc,HIRHAM5-monthly-ERA5_1975_2021.nc,0.00024579446816061826,1.0090241145725327,0.3968267129948174,1.1267636818938822,pism_g450m_frontretreat_calfin_1972_2019.nc,2.320638,3.282047,0.7089518,0.013741694,5.046734,43.41372,-468.3479,181.3423
282,773421.494368925,0.00012004768467301593,MAR3.9_IPSL-CM5-MR_rcp85_ocean_1960-2100_v4.nc,RACMO2.3p2_ERA5_FGRN055_1940_2023.nc,0.0003147230633904865,1.1304839521862067,0.3351956592426625,1.5611042776385966,,2.0659795,3.3150785,0.72799504,0.016094932,6.3040237,42.566696,-413.89508,223.22818
283,345764.3248263319,0.00011067929462961979,MAR3.9_MIROC-ESM-CHEM_rcp26_ocean_1960-2100_v4.nc,RACMO2.3p2_ERA5_FGRN055_1940_2023.nc,0.00030066043465019676,1.2535027312186604,0.5429664982445882,1.3159245493544625,,2.5828807,3.3007526,0.7434319,0.019290052,8.247598,42.379524,-346.13113,403.6183
284,766742.3941166452,0.00011296158525163881,MAR3.9_CSIRO-Mk3.6_rcp85_ocean_1960-2100_v4.nc,RACMO2.3p2_ERA5_FGRN055_1940_2023.nc,0.00031926647563588605,1.5847410898750578,0.45781266907288753,1.452631992702765,pism_g450m_frontretreat_calfin_1972_2019.nc,2.3452916,3.3315976,0.7411275,0.018462405,6.2754607,44.51159,-449.16943,467.30276
285,417275.263080459,0.00011168851250184013,MAR3.9_CNRM-CM6_ssp126_ocean_1960-2100_v4.nc,HIRHAM5-monthly-ERA5_1975_2021.nc,0.0003340523251920008,1.337464416978765,0.8329536079483546,1.6263831837159324,pism_g450m_frontretreat_calfin_1972_2019.nc,2.233785,3.3223217,0.57609075,0.019820947,9.218518,41.26529,-540.56537,420.9244
286,700158.2833619225,0.00010018442423634015,MAR3.9_HadGEM2-ES_rcp85_ocean_1960-2100_v4.nc,MARv3.14-monthly-ERA5_1940_2023.nc,0.00027733291957984476,1.5324198087945922,0.6402681725525583,1.5879878005459513,,2.7278254,3.294003,0.7117783,0.02236694,6.808413,42.918,-356.6345,334.51044
287,535304.0167424211,0.0001291292614438567,MAR3.9_CNRM-ESM2_ssp585_ocean_1960-2100_v4.nc,MARv3.14-monthly-ERA5_1940_2023.nc,0.00025132772347134455,1.1749406559849993,0.5864604093394972,1.2340248536981677,pism_g450m_frontretreat_calfin_1972_2019.nc,2.258266,3.3670335,0.7453539,0.0141166765,7.71899,43.91282,-402.7869,154.99886
288,543704.0045985584,8.413512332555042e-05,MAR3.9_NorESM1-M_rcp85_ocean_1960-2100_v4.nc,HIRHAM5-monthly-ERA5_1975_2021.nc,0.000308596918033605,1.0581373718789742,0.5497558736238524,1.1452037706982838,pism_g450m_frontretreat_calfin_1972_2019.nc,2.8560274,3.3934743,0.7761987,0.018399587,7.552725,43.943283,-486.13437,320.01495
289,699340.1337186813,0.00014313651005330453,MAR3.9_ACCESS1-3_rcp85_ocean_1960-2100_v4.nc,MARv3.14-monthly-ERA5_1940_2023.nc,0.0002608786393248844,1.3426017827047017,0.3860564226582292,1.4371587812034567,pism_g450m_frontretreat_calfin_1972_2019.nc,2.7222898,3.2350202,0.75463825,0.022705592,7.830077,41.004078,-188.34511,241.08417
290,527856.0278754127,9.789514384688511e-05,MAR3.9_UKESM1-CM6_ssp585_ocean_1960-2100_v4.nc,HIRHAM5-monthly-ERA5_1975_2021.nc,0.0002756990591014307,1.0956515231107786,0.567170615705698,1.6374088409053469,,2.8256974,3.2278209,0.7190227,0.022429576,8.074384,43.211502,-296.63507,204.70274
291,506958.93676051585,9.153103305739981e-05,MAR3.9_ACCESS1-3_rcp85_ocean_1960-2100_v4.nc,MARv3.14-monthly-ERA5_1940_2023.nc,0.0002955525934487936,1.501344716182613,0.3657876798817119,1.539334795373434,pism_g450m_frontretreat_calfin_1972_2019.nc,2.8733082,3.2637184,0.71504366,0.018080527,7.6936183,43.007847,-274.80215,109.524
292,330871.18548011617,0.00010874732859229069,MAR3.9_NorESM1-M_rcp85_ocean_1960-2100_v4.nc,RACMO2.3p2_ERA5_FGRN055_1940_2023.nc,0.0002636125745370618,1.6529881388312477,0.539109182608337,1.6128075030037778,pism_g450m_frontretreat_calfin_1972_2019.nc,1.9677334,3.304506,0.8239203,0.019515434,8.58665,41.174114,-306.24042,511.8736
293,628589.4583371172,8.859833158032486e-05,MAR3.9_CNRM-ESM2_ssp585_ocean_1960-2100_v4.nc,RACMO2.3p2_ERA5_FGRN055_1940_2023.nc,0.00028861134976581454,1.1804343358402014,0.8357915981078496,1.4784522281534098,,2.3621721,3.3369687,0.78157276,0.017026987,8.314218,44.590614,-437.662,254.43777
294,531322.0811270097,0.00010642864800117555,MAR3.9_IPSL-CM5-MR_rcp85_ocean_1960-2100_v4.nc,HIRHAM5-monthly-ERA5_1975_2021.nc,0.00024920539371496716,1.0842858101763984,0.7810189326099614,1.7652494453230494,,2.7128735,3.2880383,0.748665,0.021260617,6.613629,41.052246,-443.71982,365.45724
295,467377.5651000333,9.279244795429539e-05,MAR3.9_CSIRO-Mk3.6_rcp85_ocean_1960-2100_v4.nc,RACMO2.3p2_ERA5_FGRN055_1940_2023.nc,0.0002650344658131544,1.3219557332133771,0.7142365072035952,1.3184748093391256,pism_g450m_frontretreat_calfin_1972_2019.nc,1.8204234,3.3534832,0.8005815,0.01110911,6.6453357,43.02229,-459.8742,149.07722
296,776183.3479889446,0.00010913380158583953,MAR3.9_CNRM-ESM2_ssp585_ocean_1960-2100_v4.nc,MARv3.14-monthly-ERA5_1940_2023.nc,0.000256565265788167,1.5714912386560056,0.4231741978345716,1.620639961325122,pism_g450m_frontretreat_calfin_1972_2019.nc,2.5761826,3.2509117,0.85163116,0.022087906,6.1425104,42.095615,-232.75894,260.10394
297,573359.0938000197,7.743099484017962e-05,MAR3.9_CNRM-ESM2_ssp585_ocean_1960-2100_v4.nc,MARv3.14-monthly-ERA5_1940_2023.nc,0.00028552764375369677,1.1596048029930404,0.6796831546575985,1.4666683272235939,,2.2513502,3.2645876,0.74140686,0.018689133,5.7818403,41.675686,-307.3804,101.82101
298,329431.09370455745,0.0001408123437240164,MAR3.9_ACCESS1-3_rcp85_ocean_1960-2100_v4.nc,RACMO2.3p2_ERA5_FGRN055_1940_2023.nc,0.000333035161228967,1.1653552499413529,0.33598188020782066,1.3727535966355808,,3.1317015,3.3353086,0.5831305,0.018672023,9.222835,41.050453,-331.44025,84.62747
299,597219.1512366928,0.0001444223560597952,MAR3.9_NorESM1-M_rcp85_ocean_1960-2100_v4.nc,HIRHAM5-monthly-ERA5_1975_2021.nc,0.0002720281384443125,1.5167313967044014,0.3168419883759259,1.2515021090847083,,2.639422,3.336478,0.853986,0.01948699,6.99699,44.065308,-249.15721,192.21611
300,782575.5581575112,0.00013723100856304668,MAR3.9_CNRM-CM6_ssp126_ocean_1960-2100_v4.nc,MARv3.14-monthly-ERA5_1940_2023.nc,0.00030994385511993604,1.5709695444720748,0.7233760777018694,1.4207869638702009,,2.7263992,3.3069673,0.7502184,0.01957095,9.47971,44.686424,-283.46533,280.1514
301,758345.7702252637,0.00010177547043416284,MAR3.9_UKESM1-CM6_ssp585_ocean_1960-2100_v4.nc,RACMO2.3p2_ERA5_FGRN055_1940_2023.nc,0.0003288595642146837,1.503131741991165,0.3700486667748145,1.543826591412166,,2.5118833,3.2829561,0.6499563,0.016457878,7.4960785,41.684067,-427.63605,199.73372
302,302378.11519714264,0.00014376903457454402,MAR3.9_CNRM-CM6_ssp126_ocean_1960-2100_v4.nc,HIRHAM5-monthly-ERA5_1975_2021.nc,0.0002970830938148335,1.1581184530181523,0.43050443353998424,1.391612071072866,,2.0809906,3.3267457,0.8060136,0.01452731,7.5739746,41.743683,-408.3805,158.89607
303,630327.8750085615,8.575604834510727e-05,MAR3.9_NorESM1-M_rcp85_ocean_1960-2100_v4.nc,MARv3.14-monthly-ERA5_1940_2023.nc,0.0003447330030284719,1.6115521891357059,0.43434750183338383,1.63128712035782,pism_g450m_frontretreat_calfin_1972_2019.nc,2.459865,3.2427907,0.66441685,0.019098002,7.4961815,43.487206,-410.10196,344.79962
304,437207.4281057025,0.00013128457552001387,MAR3.9_ACCESS1-3_rcp85_ocean_1960-2100_v4.nc,RACMO2.3p2_ERA5_FGRN055_1940_2023.nc,0.00033315599266930864,1.2333196067644494,0.47553234786397747,1.62911842110483,,2.4794278,3.3418612,0.6424289,0.014172866,10.418009,43.930595,-410.99402,27.100317
305,630751.4221374867,0.00011855642951311596,MAR3.9_CNRM-ESM2_ssp585_ocean_1960-2100_v4.nc,MARv3.14-monthly-ERA5_1940_2023.nc,0.0002917011561939502,1.642853267459655,0.5752379668985202,1.5915423404447404,,2.6693332,3.310143,0.6596485,0.016884929,6.743304,41.918186,-512.0521,350.12817
306,358332.69558766176,8.248053991887381e-05,MAR3.9_CNRM-ESM2_ssp585_ocean_1960-2100_v4.nc,HIRHAM5-monthly-ERA5_1975_2021.nc,0.00028724849026295375,1.3869184897677815,0.7040954165381863,1.1002965187795692,pism_g450m_frontretreat_calfin_1972_2019.nc,2.50146,3.2674668,0.7327226,0.016500166,5.4820013,42.119385,-473.4557,280.0509
307,681918.4633660873,9.092819819608576e-05,MAR3.9_UKESM1-CM6_ssp585_ocean_1960-2100_v4.nc,RACMO2.3p2_ERA5_FGRN055_1940_2023.nc,0.0002640309164605396,1.0117600120545014,0.7441987066085203,1.219244769177828,,1.9048365,3.3032057,0.80128425,0.012585086,6.8003483,43.308083,-417.7828,136.27533
308,450885.7745928434,0.00012527475289508355,MAR3.9_HadGEM2-ES_rcp85_ocean_1960-2100_v4.nc,RACMO2.3p2_ERA5_FGRN055_1940_2023.nc,0.00032006641221198463,1.2997511844959562,0.6457532158018096,1.6944558274056203,pism_g450m_frontretreat_calfin_1972_2019.nc,3.0461955,3.3359082,0.78285164,0.02013822,8.888915,40.480293,-317.27307,319.9971
309,730912.176583152,7.922548138581103e-05,MAR3.9_ACCESS1-3_rcp85_ocean_1960-2100_v4.nc,HIRHAM5-monthly-ERA5_1975_2021.nc,0.0003146467267691957,1.5203927028385575,0.8115278440312768,1.3442317801033783,pism_g450m_frontretreat_calfin_1972_2019.nc,2.1567338,3.3127708,0.77253944,0.01915899,5.809245,42.028755,-280.89993,175.79102
310,397127.3637101144,0.00010989461035938305,MAR3.9_ACCESS1-3_rcp85_ocean_1960-2100_v4.nc,HIRHAM5-monthly-ERA5_1975_2021.nc,0.00025924441331846105,1.5651554473741625,0.6609689900762357,1.2099444395721435,,2.9376178,3.3235815,0.73000443,0.016934633,9.151554,43.7484,-348.49622,264.9015
311,312609.9053697069,8.564525485075584e-05,MAR3.9_MIROC-ESM-CHEM_rcp26_ocean_1960-2100_v4.nc,HIRHAM5-monthly-ERA5_1975_2021.nc,0.0003273602711162466,1.693255994170197,0.6335025530232543,1.3101246271517326,pism_g450m_frontretreat_calfin_1972_2019.nc,2.958617,3.3273184,0.64533454,0.014156274,6.314062,44.23835,-418.3716,165.95195
312,344657.30683911766,0.00011184988635887718,MAR3.9_CSIRO-Mk3.6_rcp85_ocean_1960-2100_v4.nc,MARv3.14-monthly-ERA5_1940_2023.nc,0.0002968794234802793,1.6066988227083256,0.39213107665447205,1.1875233481797294,pism_g450m_frontretreat_calfin_1972_2019.nc,2.0900733,3.2827272,0.7957478,0.01690292,5.129214,44.560387,-473.18134,326.24918
313,401793.67494039715,0.00010484259480406058,MAR3.9_HadGEM2-ES_rcp85_ocean_1960-2100_v4.nc,RACMO2.3p2_ERA5_FGRN055_1940_2023.nc,0.0002941997265027762,1.472416305714215,0.45235659807927,1.3986607828599733,pism_g450m_frontretreat_calfin_1972_2019.nc,2.8134894,3.2381206,0.5064071,0.020425977,6.0250363,42.871304,-480.81042,257.86194
314,500770.3687780248,8.148200427868841e-05,MAR3.9_NorESM1-M_rcp85_ocean_1960-2100_v4.nc,MARv3.14-monthly-ERA5_1940_2023.nc,0.00033422579030323497,1.276021743470838,0.3093009526363139,1.3714733479387213,pism_g450m_frontretreat_calfin_1972_2019.nc,2.5250638,3.3643389,0.733242,0.015497681,10.007743,43.091896,-408.48145,191.53079
315,494768.31295413,0.00011406658378199005,MAR3.9_CNRM-ESM2_ssp585_ocean_1960-2100_v4.nc,MARv3.14-monthly-ERA5_1940_2023.nc,0.00028364848868553405,1.3535187735329481,0.6964155789921113,1.2368788497961842,,2.554856,3.199146,0.6996862,0.018964676,7.268407,41.396843,-303.72202,156.819
316,727324.1166384793,7.8301430950081e-05,MAR3.9_MIROC-ESM-CHEM_rcp26_ocean_1960-2100_v4.nc,RACMO2.3p2_ERA5_FGRN055_1940_2023.nc,0.00027210222267033235,1.397735984120552,0.5515715071248652,1.4510145598508866,,2.8568661,3.3148098,0.704187,0.019088907,5.1829233,42.855015,-569.801,443.40686
317,621982.3630373944,7.591357138700462e-05,MAR3.9_MIROC-ESM-CHEM_rcp26_ocean_1960-2100_v4.nc,HIRHAM5-monthly-ERA5_1975_2021.nc,0.0003069680304219611,1.1869564024934371,0.5730555514531583,1.3291167447141514,pism_g450m_frontretreat_calfin_1972_2019.nc,2.1550534,3.2947364,0.8393328,0.015485015,5.8563957,43.319645,-361.26398,227.62892
318,300224.25367449253,0.0001215744789593369,MAR3.9_IPSL-CM5-MR_rcp85_ocean_1960-2100_v4.nc,MARv3.14-monthly-ERA5_1940_2023.nc,0.0002620263043488681,1.3565368606324484,0.38018952032508924,1.2546958083364559,,2.7530894,3.289384,0.6241685,0.028290473,5.0720944,41.859432,-571.2036,704.7035
319,569812.544058483,0.00012143533985443694,MAR3.9_HadGEM2-ES_rcp85_ocean_1960-2100_v4.nc,HIRHAM5-monthly-ERA5_1975_2021.nc,0.0002783577017716103,1.2920960322322916,0.3221130718325311,1.4949393041963512,pism_g450m_frontretreat_calfin_1972_2019.nc,3.021789,3.2434456,0.73208356,0.019047685,6.4971523,43.860004,-350.73026,278.6142
320,533558.2426367407,0.00013760835878021355,MAR3.9_ACCESS1-3_rcp85_ocean_1960-2100_v4.nc,HIRHAM5-monthly-ERA5_1975_2021.nc,0.0003540748510314365,1.0246203685496815,0.8123838748447292,1.1682625314976378,pism_g450m_frontretreat_calfin_1972_2019.nc,2.945645,3.2944453,0.74708974,0.013999042,6.376704,44.401726,-330.25125,75.647545
321,792566.2985050281,8.961056263166896e-05,MAR3.9_ACCESS1-3_rcp85_ocean_1960-2100_v4.nc,RACMO2.3p2_ERA5_FGRN055_1940_2023.nc,0.000351454969645122,1.3774605777313949,0.3188946365264128,1.385057154571088,pism_g450m_frontretreat_calfin_1972_2019.nc,2.802088,3.3358762,0.8895662,0.024461914,5.2196045,43.383244,-411.28778,561.2485
322,720548.7759084566,8.690684219177316e-05,MAR3.9_CNRM-ESM2_ssp585_ocean_1960-2100_v4.nc,RACMO2.3p2_ERA5_FGRN055_1940_2023.nc,0.0003083509334580069,1.2642503776503506,0.8463851533253641,1.2867356734446969,pism_g450m_frontretreat_calfin_1972_2019.nc,2.0250952,3.3047714,0.7846127,0.011340704,7.0873966,44.760517,-480.68732,173.32137
323,449566.89188183856,0.00012474503896237524,MAR3.9_MIROC-ESM-CHEM_rcp26_ocean_1960-2100_v4.nc,HIRHAM5-monthly-ERA5_1975_2021.nc,0.00033973973921387455,1.4586570141429953,0.6903965955478301,1.4653786141424545,pism_g450m_frontretreat_calfin_1972_2019.nc,2.5438461,3.2845528,0.6599951,0.019252792,9.505649,41.878582,-334.227,355.2677
324,759001.8790635631,0.00011956623318626003,MAR3.9_CNRM-ESM2_ssp585_ocean_1960-2100_v4.nc,RACMO2.3p2_ERA5_FGRN055_1940_2023.nc,0.0003070959471284929,1.0606401602943685,0.7158809210376937,1.335502494470219,pism_g450m_frontretreat_calfin_1972_2019.nc,2.741423,3.2626228,0.8621602,0.023495851,7.2833858,42.087894,-328.19293,235.89726
325,595142.3524840276,0.00013244971055538984,MAR3.9_MIROC-ESM-CHEM_rcp26_ocean_1960-2100_v4.nc,RACMO2.3p2_ERA5_FGRN055_1940_2023.nc,0.00030637565010512696,1.4710926045895683,0.4205928892796615,1.6035913578530598,,3.0865467,3.2050939,0.6714534,0.026156742,5.377221,44.86356,-256.042,156.44193
326,769712.5869438702,0.00012689615482413722,MAR3.9_CSIRO-Mk3.6_rcp85_ocean_1960-2100_v4.nc,MARv3.14-monthly-ERA5_1940_2023.nc,0.000291459309924074,1.153053122443908,0.4983720200593213,1.2224918062619508,pism_g450m_frontretreat_calfin_1972_2019.nc,2.805577,3.249218,0.7505929,0.022901472,6.996776,41.10099,-309.26367,544.95856
327,328395.648366107,0.00013644896383317777,MAR3.9_IPSL-CM5-MR_rcp85_ocean_1960-2100_v4.nc,HIRHAM5-monthly-ERA5_1975_2021.nc,0.00035687662932932623,1.5285767980924536,0.4058627586220566,1.1410841420930113,,2.614367,3.2664037,0.7370151,0.01599077,6.42913,41.051403,-394.54034,105.56214
328,473898.7861878044,9.508494879489474e-05,MAR3.9_CSIRO-Mk3.6_rcp85_ocean_1960-2100_v4.nc,MARv3.14-monthly-ERA5_1940_2023.nc,0.0002744793782344762,1.0289670163685305,0.7690955950411126,1.190990990523067,,2.1180348,3.2474053,0.8009246,0.012634963,10.277606,42.79157,-258.14615,104.221085
329,427671.33276379784,0.0001278206673145905,MAR3.9_UKESM1-CM6_ssp585_ocean_1960-2100_v4.nc,RACMO2.3p2_ERA5_FGRN055_1940_2023.nc,0.0002896985149097511,1.4085045438352777,0.46084211118147156,1.798492204996295,,2.7321143,3.3116176,0.5937863,0.01728608,7.7954664,43.7775,-475.148,227.57408
330,477839.0736823316,8.484379068707479e-05,MAR3.9_ACCESS1-3_rcp85_ocean_1960-2100_v4.nc,MARv3.14-monthly-ERA5_1940_2023.nc,0.00025236221840292526,1.473742021402248,0.4088605523432839,1.24479415992842,pism_g450m_frontretreat_calfin_1972_2019.nc,2.8321605,3.248306,0.7178007,0.01803892,8.047066,44.42658,-362.41522,123.870186
331,308062.61200773483,0.00012498142224938655,MAR3.9_UKESM1-CM6_ssp585_ocean_1960-2100_v4.nc,MARv3.14-monthly-ERA5_1940_2023.nc,0.0002790547835818331,1.5311749378749924,0.7433987052039197,1.2833568134835311,,2.8997173,3.2895215,0.5492281,0.022196744,7.8320355,41.374493,-391.4032,211.38428
332,751346.4222662675,0.00011529654792047855,MAR3.9_MIROC-ESM-CHEM_rcp26_ocean_1960-2100_v4.nc,MARv3.14-monthly-ERA5_1940_2023.nc,0.0002644948978929747,1.6274192913529668,0.8144292032524343,1.3491983125438263,,2.828099,3.3101726,0.57776487,0.015860131,8.528446,42.76656,-501.93225,128.3086
333,568220.659763783,0.00012026339751419617,MAR3.9_CNRM-ESM2_ssp585_ocean_1960-2100_v4.nc,MARv3.14-monthly-ERA5_1940_2023.nc,0.00026850245487544796,1.265963577838029,0.731157100330737,1.7327325190011156,pism_g450m_frontretreat_calfin_1972_2019.nc,2.976823,3.2462428,0.80470866,0.020037575,6.408815,44.27578,-345.02032,337.3003
334,773847.1496110894,9.622751746286508e-05,MAR3.9_MIROC-ESM-CHEM_rcp26_ocean_1960-2100_v4.nc,HIRHAM5-monthly-ERA5_1975_2021.nc,0.00034799696790070375,1.1137214084012,0.5834510805011399,1.1679238306615216,pism_g450m_frontretreat_calfin_1972_2019.nc,2.315874,3.28188,0.77923006,0.015642822,6.104856,43.913475,-370.78964,232.94246
335,769293.9236775836,0.00012086276937475422,MAR3.9_HadGEM2-ES_rcp85_ocean_1960-2100_v4.nc,MARv3.14-monthly-ERA5_1940_2023.nc,0.0002988396041851135,1.3554847142285322,0.6635280553516316,1.2743772562585747,pism_g450m_frontretreat_calfin_1972_2019.nc,2.611699,3.319398,0.8422952,0.019665897,6.6085243,43.09789,-352.02698,460.43677
336,642112.9809270037,0.00012424929257750372,MAR3.9_NorESM1-M_rcp85_ocean_1960-2100_v4.nc,RACMO2.3p2_ERA5_FGRN055_1940_2023.nc,0.0003463604605936319,1.0714180705721494,0.34124373701453603,1.4933849557837942,pism_g450m_frontretreat_calfin_1972_2019.nc,2.6775067,3.30067,0.7818853,0.01471147,8.332433,43.23638,-419.79623,219.1759
337,599940.8020712117,8.514809136158357e-05,MAR3.9_NorESM1-M_rcp85_ocean_1960-2100_v4.nc,RACMO2.3p2_ERA5_FGRN055_1940_2023.nc,0.00026588873181237224,1.018219261532872,0.6747242624094539,1.6811630322206055,,3.0137544,3.3323586,0.6470709,0.019440902,9.6443,42.326412,-507.4121,256.98557
338,594487.9867730713,0.00011784133373933134,MAR3.9_CNRM-ESM2_ssp585_ocean_1960-2100_v4.nc,RACMO2.3p2_ERA5_FGRN055_1940_2023.nc,0.00025788007367265315,1.143515187699929,0.5485629889831408,1.1070978678037082,pism_g450m_frontretreat_calfin_1972_2019.nc,2.6928835,3.272036,0.6963307,0.021420434,7.6703057,44.217335,-387.33914,627.61487
339,580576.1597066715,8.476320439961936e-05,MAR3.9_MIROC-ESM-CHEM_rcp26_ocean_1960-2100_v4.nc,MARv3.14-monthly-ERA5_1940_2023.nc,0.00034392875283305053,1.5122679643486467,0.532756804729885,1.4797698438518792,pism_g450m_frontretreat_calfin_1972_2019.nc,2.6308408,3.3272626,0.8264518,0.017976262,7.746939,44.71077,-411.18335,247.90518
340,789489.1524704525,8.283461207226523e-05,MAR3.9_IPSL-CM5-MR_rcp85_ocean_1960-2100_v4.nc,HIRHAM5-monthly-ERA5_1975_2021.nc,0.0002791757202717143,1.358246823992733,0.33235149240312356,1.600146451342219,pism_g450m_frontretreat_calfin_1972_2019.nc,2.6469238,3.3643079,0.7899195,0.015199674,10.861301,42.85765,-338.60736,82.171875
341,790328.2437280365,9.084195950191575e-05,MAR3.9_MIROC-ESM-CHEM_rcp26_ocean_1960-2100_v4.nc,MARv3.14-monthly-ERA5_1940_2023.nc,0.0003328318691707186,1.0462793962096941,0.33082563814918203,1.316373704808226,,2.672476,3.3712533,0.9128638,0.015311148,5.399395,41.104393,-445.5481,295.294
342,696145.1053815524,8.105944366505887e-05,MAR3.9_HadGEM2-ES_rcp85_ocean_1960-2100_v4.nc,HIRHAM5-monthly-ERA5_1975_2021.nc,0.00030741799710200485,1.5387852388184327,0.5154272311284955,1.444499955497341,pism_g450m_frontretreat_calfin_1972_2019.nc,2.3124628,3.3247058,0.7814546,0.017019782,8.964494,43.58859,-340.377,226.4196
343,783666.6254967306,0.0001026249413260438,MAR3.9_UKESM1-CM6_ssp585_ocean_1960-2100_v4.nc,HIRHAM5-monthly-ERA5_1975_2021.nc,0.0003355016128160135,1.2026112625936958,0.7758767659753256,1.2281447287780263,,2.7152872,3.3333519,0.6173801,0.014994872,6.5638804,44.612576,-628.9425,314.20135
344,441471.50110146217,0.00011299492893980626,MAR3.9_IPSL-CM5-MR_rcp85_ocean_1960-2100_v4.nc,MARv3.14-monthly-ERA5_1940_2023.nc,0.0002630608204518846,1.621972870868721,0.5643216044079153,1.1704791677830548,,2.2656307,3.2926648,0.7662639,0.016985592,5.8021035,42.85213,-297.20728,202.31805
345,754806.4283142639,0.00011992273547788809,MAR3.9_MIROC-ESM-CHEM_rcp26_ocean_1960-2100_v4.nc,RACMO2.3p2_ERA5_FGRN055_1940_2023.nc,0.0003150379181343855,1.2489935596452861,0.7063878928906338,1.5001569815334668,,2.1116352,3.3014748,0.6001997,0.017874187,7.797232,41.623272,-431.37958,304.6172
346,364683.7233787809,0.00013787323850461103,MAR3.9_CNRM-ESM2_ssp585_ocean_1960-2100_v4.nc,MARv3.14-monthly-ERA5_1940_2023.nc,0.00024225111236777402,1.2220589759071847,0.6814400218814511,1.3123968389631695,,2.6301627,3.3248427,0.8757832,0.016880661,5.086542,41.957855,-472.58273,165.72891
347,488984.56604111916,0.00011488769987614617,MAR3.9_IPSL-CM5-MR_rcp85_ocean_1960-2100_v4.nc,MARv3.14-monthly-ERA5_1940_2023.nc,0.0002626768315764905,1.1956727709782176,0.6726641381193738,1.7112151137486362,pism_g450m_frontretreat_calfin_1972_2019.nc,2.8142745,3.3836198,0.7475091,0.014295797,7.172732,44.462494,-400.96545,103.82737
348,797581.6012479872,0.00014343378436357517,MAR3.9_UKESM1-CM6_ssp585_ocean_1960-2100_v4.nc,MARv3.14-monthly-ERA5_1940_2023.nc,0.00033797653882922037,1.287408652161318,0.6876558321522548,1.3683627375411223,,2.5933287,3.3324692,0.8537384,0.01597184,10.738201,43.76218,-237.94295,234.99841
349,692644.5866150178,8.852339031663792e-05,MAR3.9_HadGEM2-ES_rcp85_ocean_1960-2100_v4.nc,RACMO2.3p2_ERA5_FGRN055_1940_2023.nc,0.0002936657623467019,1.6081314800638706,0.4885260644363344,1.3308696908763036,pism_g450m_frontretreat_calfin_1972_2019.nc,2.5617821,3.245895,0.76599944,0.02158915,8.006622,41.252644,-224.39194,284.09473
350,439883.13837542856,0.00010775941106742928,MAR3.9_MIROC-ESM-CHEM_rcp26_ocean_1960-2100_v4.nc,MARv3.14-monthly-ERA5_1940_2023.nc,0.0003269468043362308,1.260103353669158,0.5763741682702722,1.2299110552218697,,2.8256466,3.2776155,0.61816996,0.021764081,7.0442195,42.17122,-450.73102,438.35214
351,381278.3604699527,0.00013362394037074715,MAR3.9_CNRM-ESM2_ssp585_ocean_1960-2100_v4.nc,HIRHAM5-monthly-ERA5_1975_2021.nc,0.0002851351826630508,1.348556865806152,0.6039882923361135,1.3762645535730105,pism_g450m_frontretreat_calfin_1972_2019.nc,2.1340065,3.3092115,0.82493246,0.013110201,5.314879,43.07584,-470.2982,231.78423
352,754203.5291184338,0.00014812263096503127,MAR3.9_HadGEM2-ES_rcp85_ocean_1960-2100_v4.nc,RACMO2.3p2_ERA5_FGRN055_1940_2023.nc,0.00024267326310447232,1.2412658219302939,0.7640878704765928,1.1627787672118268,pism_g450m_frontretreat_calfin_1972_2019.nc,2.5614738,3.2950082,0.85236245,0.0147732105,5.2337966,43.34477,-381.78397,164.8157
353,707523.7508223001,0.00012997686324566922,MAR3.9_MIROC-ESM-CHEM_rcp26_ocean_1960-2100_v4.nc,HIRHAM5-monthly-ERA5_1975_2021.nc,0.0002589090503549307,1.1622790414360535,0.4899047688496704,1.6579643390218788,,2.0889542,3.4019814,0.69078404,0.015125593,7.980196,44.318336,-713.7369,715.35223
354,454244.0778553729,0.0001243507316235513,MAR3.9_MIROC-ESM-CHEM_rcp26_ocean_1960-2100_v4.nc,HIRHAM5-monthly-ERA5_1975_2021.nc,0.0003312648371512882,1.207384625431985,0.7455543293146895,1.4191651171384903,,2.8098094,3.3486187,0.7600554,0.015180625,9.83479,44.2307,-342.20636,157.78342
355,624252.1262895158,0.00011825033669937921,MAR3.9_IPSL-CM5-MR_rcp85_ocean_1960-2100_v4.nc,RACMO2.3p2_ERA5_FGRN055_1940_2023.nc,0.00028083550819119616,1.5109293890373983,0.7167374256011182,1.4350299584029311,,2.6498842,3.2932599,0.7153088,0.01961488,7.1366286,42.298985,-429.1928,371.34778
356,725978.4771829785,0.00012989084008720452,MAR3.9_CNRM-ESM2_ssp585_ocean_1960-2100_v4.nc,HIRHAM5-monthly-ERA5_1975_2021.nc,0.00028936283526502033,1.15143654765119,0.7125244194392248,1.51955504631838,,3.0476613,3.3621216,0.77978283,0.018381609,8.977873,43.821575,-335.38873,40.6364
357,522116.4620470722,0.00012053033874143749,MAR3.9_UKESM1-CM6_ssp585_ocean_1960-2100_v4.nc,HIRHAM5-monthly-ERA5_1975_2021.nc,0.0003427540452431234,1.598708810608998,0.3985480007907491,1.2391807008970463,,2.6001656,3.2757747,0.60309464,0.01914843,5.0784802,42.810337,-441.818,252.6275
358,734248.4776643771,9.094982766247466e-05,MAR3.9_NorESM1-M_rcp85_ocean_1960-2100_v4.nc,HIRHAM5-monthly-ERA5_1975_2021.nc,0.00024129498425892948,1.6767220708754147,0.8242086748570208,1.292861781277874,pism_g450m_frontretreat_calfin_1972_2019.nc,2.2941775,3.3222618,0.7763516,0.01883323,5.929216,43.259224,-371.45874,223.08942
359,530623.7798490113,0.00010862195697361651,MAR3.9_MIROC-ESM-CHEM_rcp26_ocean_1960-2100_v4.nc,MARv3.14-monthly-ERA5_1940_2023.nc,0.0002538995266489241,1.4113781549704139,0.42775308111435095,1.787791590376575,pism_g450m_frontretreat_calfin_1972_2019.nc,3.0363266,3.3227906,0.75305986,0.018391522,8.239499,44.067997,-313.0836,116.3294
360,429723.6837789479,7.508997188848169e-05,MAR3.9_CNRM-CM6_ssp126_ocean_1960-2100_v4.nc,HIRHAM5-monthly-ERA5_1975_2021.nc,0.00034915125347171895,1.1546200229710957,0.8192301890431115,1.3049797352867303,pism_g450m_frontretreat_calfin_1972_2019.nc,2.8890944,3.2779937,0.6554645,0.022041595,9.481657,42.411163,-251.061,244.40147
361,371680.47738828114,8.050431354661928e-05,MAR3.9_CNRM-CM6_ssp126_ocean_1960-2100_v4.nc,RACMO2.3p2_ERA5_FGRN055_1940_2023.nc,0.00025693096790870544,1.6940308245872082,0.8089589169271723,1.2591396292544343,,2.2841623,3.284862,0.81526184,0.013475315,9.031524,43.319736,-378.4469,264.4954
362,756742.1633036302,9.203531982081325e-05,MAR3.9_ACCESS1-3_rcp85_ocean_1960-2100_v4.nc,MARv3.14-monthly-ERA5_1940_2023.nc,0.00024170096208103026,1.3083374448273803,0.40207797076584995,1.4335672884932733,pism_g450m_frontretreat_calfin_1972_2019.nc,2.5984204,3.3273017,0.6083537,0.017291626,9.203145,41.4964,-440.5267,270.04108
363,374402.13541683054,0.00011847708295231548,MAR3.9_ACCESS1-3_rcp85_ocean_1960-2100_v4.nc,HIRHAM5-monthly-ERA5_1975_2021.nc,0.0002590717314914481,1.441320875437323,0.594294080091275,1.3569631931860446,pism_g450m_frontretreat_calfin_1972_2019.nc,2.7268925,3.3900607,0.78127694,0.019490348,7.3549523,42.9898,-472.28534,468.41736
364,555429.3955100933,0.00012575304142714932,MAR3.9_UKESM1-CM6_ssp585_ocean_1960-2100_v4.nc,RACMO2.3p2_ERA5_FGRN055_1940_2023.nc,0.0002877427885307125,1.3072036726963374,0.6482556130607698,1.7538227715908334,pism_g450m_frontretreat_calfin_1972_2019.nc,2.7499042,3.302225,0.7617924,0.017713336,6.106485,42.97437,-367.18567,184.92206
365,689993.379737119,0.00010075610564958719,MAR3.9_HadGEM2-ES_rcp85_ocean_1960-2100_v4.nc,RACMO2.3p2_ERA5_FGRN055_1940_2023.nc,0.00029936010761981083,1.093995070125823,0.6291129783390031,1.3482748146946593,pism_g450m_frontretreat_calfin_1972_2019.nc,3.196378,3.3974833,0.7852053,0.025991676,9.606143,40.18767,-274.125,283.69345
366,447236.8750781078,0.00011286457457229585,MAR3.9_CNRM-CM6_ssp126_ocean_1960-2100_v4.nc,HIRHAM5-monthly-ERA5_1975_2021.nc,0.00034039008123140153,1.3014976680884072,0.3878606550698514,1.1033082289013187,pism_g450m_frontretreat_calfin_1972_2019.nc,2.5574298,3.2904487,0.6347676,0.01673589,7.760273,42.969135,-360.308,193.48447
367,314872.1043542718,9.462292720925523e-05,MAR3.9_CNRM-CM6_ssp126_ocean_1960-2100_v4.nc,MARv3.14-monthly-ERA5_1940_2023.nc,0.00027824788158778446,1.2001356648308008,0.504711773785616,1.738533907329769,pism_g450m_frontretreat_calfin_1972_2019.nc,2.6310747,3.307056,0.80429775,0.018912524,7.4151697,44.248142,-307.7084,139.01285
368,519209.344636301,8.038798756525826e-05,MAR3.9_ACCESS1-3_rcp85_ocean_1960-2100_v4.nc,MARv3.14-monthly-ERA5_1940_2023.nc,0.00024366189844992884,1.451343232156107,0.44420033953962235,1.558033862971389,pism_g450m_frontretreat_calfin_1972_2019.nc,3.0723112,3.3332787,0.7443229,0.019995186,6.256559,44.20093,-435.7819,124.29431
369,537877.7360372087,7.57492351470716e-05,MAR3.9_MIROC-ESM-CHEM_rcp26_ocean_1960-2100_v4.nc,RACMO2.3p2_ERA5_FGRN055_1940_2023.nc,0.0002752361225924199,1.4517461425801255,0.4684939556275114,1.566418901103522,pism_g450m_frontretreat_calfin_1972_2019.nc,2.245311,3.331138,0.9201324,0.01829617,5.984625,44.772438,-484.50717,217.98335
370,356240.95810435317,9.668640658744729e-05,MAR3.9_HadGEM2-ES_rcp85_ocean_1960-2100_v4.nc,HIRHAM5-monthly-ERA5_1975_2021.nc,0.0002793072937719884,1.6134857409853376,0.6713125530365371,1.5527153303665546,pism_g450m_frontretreat_calfin_1972_2019.nc,3.3082042,3.2998037,0.67179507,0.025753792,6.663615,42.57192,-263.64456,198.4869
371,755928.4866247725,0.00012820848507673224,MAR3.9_HadGEM2-ES_rcp85_ocean_1960-2100_v4.nc,MARv3.14-monthly-ERA5_1940_2023.nc,0.00033655675934404544,1.2778235587722133,0.3849115630636936,1.1999347413693842,pism_g450m_frontretreat_calfin_1972_2019.nc,2.5341775,3.2948213,0.8013989,0.015435092,8.609762,41.05852,-259.18167,163.77414
372,491231.3911406674,0.00012678042009207636,MAR3.9_CNRM-ESM2_ssp585_ocean_1960-2100_v4.nc,MARv3.14-monthly-ERA5_1940_2023.nc,0.00027329281096118515,1.1639871938558417,0.38115049482290997,1.6383404863139444,,3.292601,3.346971,0.66477716,0.02208037,8.349329,41.668106,-433.88657,136.50426
373,510917.3875792675,0.00011738957753019904,MAR3.9_HadGEM2-ES_rcp85_ocean_1960-2100_v4.nc,MARv3.14-monthly-ERA5_1940_2023.nc,0.0002953656583496694,1.6549182881460636,0.4331578879241479,1.366347597996616,pism_g450m_frontretreat_calfin_1972_2019.nc,2.5358038,3.3015018,0.7455636,0.01734729,7.3089347,43.157177,-377.15546,382.08188
374,690577.5032202051,9.143349626383938e-05,MAR3.9_UKESM1-CM6_ssp585_ocean_1960-2100_v4.nc,HIRHAM5-monthly-ERA5_1975_2021.nc,0.00033436952923146296,1.1672559473795043,0.6705628093984525,1.2557865276549105,,2.7049906,3.2849376,0.8236449,0.021945296,5.0981884,40.509567,-386.561,409.04178
375,732899.3579363418,0.0001435813394763065,MAR3.9_CNRM-ESM2_ssp585_ocean_1960-2100_v4.nc,MARv3.14-monthly-ERA5_1940_2023.nc,0.0002898490831491142,1.357320932593016,0.4593722814529413,1.6351423056831682,,2.5690804,3.2901785,0.7304734,0.019511225,7.5963044,44.512444,-365.28226,359.90192
376,480026.5362407868,0.00013607362026979845,MAR3.9_CNRM-CM6_ssp126_ocean_1960-2100_v4.nc,MARv3.14-monthly-ERA5_1940_2023.nc,0.000273045343417561,1.5536876587606607,0.5891146149054969,1.6362507635431234,,2.7162683,3.2845218,0.7201052,0.01806835,5.9942284,43.877396,-295.8495,197.82607
377,738480.2818435762,9.973658052999481e-05,MAR3.9_MIROC-ESM-CHEM_rcp26_ocean_1960-2100_v4.nc,MARv3.14-monthly-ERA5_1940_2023.nc,0.00026949651471389323,1.5607741364472518,0.8415310473504143,1.4742284821522111,,2.4626884,3.2916026,0.8062342,0.0229562,8.981181,43.950817,-249.82088,477.78116
378,346374.5150705988,0.00013796392611710518,MAR3.9_MIROC-ESM-CHEM_rcp26_ocean_1960-2100_v4.nc,MARv3.14-monthly-ERA5_1940_2023.nc,0.0002450577540880416,1.407039609939411,0.40248576179098045,1.4466367254842392,pism_g450m_frontretreat_calfin_1972_2019.nc,2.4876277,3.2885058,0.8427842,0.012727019,8.406048,43.1209,-346.81818,71.41802
379,532668.218358204,0.00014794628701067638,MAR3.9_CNRM-ESM2_ssp585_ocean_1960-2100_v4.nc,MARv3.14-monthly-ERA5_1940_2023.nc,0.00024718852207074527,1.3761087296216208,0.3300387360493676,1.6148829974061532,pism_g450m_frontretreat_calfin_1972_2019.nc,2.49141,3.3550777,0.83404344,0.024896042,7.55591,41.437885,-209.97694,259.7717
380,413211.7141737329,8.673798227490733e-05,MAR3.9_CSIRO-Mk3.6_rcp85_ocean_1960-2100_v4.nc,RACMO2.3p2_ERA5_FGRN055_1940_2023.nc,0.00030975992711954157,1.1126097551904737,0.7588217057740465,1.386743177061824,pism_g450m_frontretreat_calfin_1972_2019.nc,2.74709,3.3097012,0.6299669,0.021097459,9.55159,42.420906,-293.88858,163.5988
381,461739.4809929315,9.517985013914948e-05,MAR3.9_CNRM-ESM2_ssp585_ocean_1960-2100_v4.nc,MARv3.14-monthly-ERA5_1940_2023.nc,0.00024142062226267504,1.3340929607576069,0.7452140335620153,1.6889614427509858,pism_g450m_frontretreat_calfin_1972_2019.nc,3.0582578,3.3314989,0.72959197,0.017471392,8.601517,42.522873,-397.94128,99.61513
382,424172.12178874476,0.00010767676230529112,MAR3.9_ACCESS1-3_rcp85_ocean_1960-2100_v4.nc,HIRHAM5-monthly-ERA5_1975_2021.nc,0.0003176902207242066,1.163336714272942,0.6459134380962352,1.6372167088611342,,2.549611,3.3144672,0.5872019,0.018687211,6.486079,41.000446,-498.4273,195.14154
383,539084.9250364288,7.700506610144422e-05,MAR3.9_IPSL-CM5-MR_rcp85_ocean_1960-2100_v4.nc,MARv3.14-monthly-ERA5_1940_2023.nc,0.00025036511535737844,1.345866180514986,0.325571757472409,1.5227106068880016,pism_g450m_frontretreat_calfin_1972_2019.nc,2.8674212,3.329616,0.7186339,0.015925078,10.408218,42.215954,-353.753,144.24889
384,327502.46065109165,0.00013972578626864242,MAR3.9_MIROC-ESM-CHEM_rcp26_ocean_1960-2100_v4.nc,MARv3.14-monthly-ERA5_1940_2023.nc,0.0003191982545908247,1.286454326512989,0.6531920808667788,1.6544248502613361,pism_g450m_frontretreat_calfin_1972_2019.nc,2.418851,3.2700212,0.78813654,0.02576888,5.4995947,42.067623,-254.93845,260.12015
385,648737.6024887437,0.00012972599920960684,MAR3.9_CSIRO-Mk3.6_rcp85_ocean_1960-2100_v4.nc,HIRHAM5-monthly-ERA5_1975_2021.nc,0.000352484369881908,1.0263580213765158,0.48830537731809986,1.193735822047814,,2.908902,3.3209372,0.7859143,0.02591348,7.048628,42.852768,-312.79233,493.52576
386,660251.0116394109,0.00014991026863062304,MAR3.9_CNRM-ESM2_ssp585_ocean_1960-2100_v4.nc,RACMO2.3p2_ERA5_FGRN055_1940_2023.nc,0.0003206598933014548,1.2481271659354396,0.33389673143615217,1.4610628955646607,pism_g450m_frontretreat_calfin_1972_2019.nc,2.794851,3.3493996,0.81496143,0.019424256,7.4423747,43.74156,-393.04126,276.58792
387,411859.6101471159,0.00014894724760900667,MAR3.9_NorESM1-M_rcp85_ocean_1960-2100_v4.nc,RACMO2.3p2_ERA5_FGRN055_1940_2023.nc,0.0003370170423354858,1.4645685921222695,0.6421016006227376,1.7425004250880927,pism_g450m_frontretreat_calfin_1972_2019.nc,2.653539,3.271932,0.6596754,0.019609157,7.050624,43.155987,-397.61356,271.8203
388,389832.3808261019,0.0001463640874233765,MAR3.9_CNRM-CM6_ssp126_ocean_1960-2100_v4.nc,RACMO2.3p2_ERA5_FGRN055_1940_2023.nc,0.0002869534446886504,1.4968071299557404,0.3793572843890875,1.6091066115390285,,2.3105872,3.3099184,0.7761635,0.01577503,7.1687555,44.312157,-418.6819,305.17184
389,408105.0774090575,9.190866692517223e-05,MAR3.9_NorESM1-M_rcp85_ocean_1960-2100_v4.nc,HIRHAM5-monthly-ERA5_1975_2021.nc,0.00031813915697424046,1.6178456817847398,0.6622455258734808,1.6978359352042216,pism_g450m_frontretreat_calfin_1972_2019.nc,2.474357,3.3318803,0.7761597,0.016101051,5.2376356,41.15368,-471.72345,236.05821
390,613386.5702697651,7.968760316536779e-05,MAR3.9_CNRM-ESM2_ssp585_ocean_1960-2100_v4.nc,RACMO2.3p2_ERA5_FGRN055_1940_2023.nc,0.00031715639305923433,1.373682864656579,0.8245962825985043,1.4760175349732683,,2.5926363,3.2767317,0.531441,0.017036036,6.7677803,43.733517,-695.61005,330.49323
391,616742.7839256342,7.790304248869067e-05,MAR3.9_CNRM-ESM2_ssp585_ocean_1960-2100_v4.nc,HIRHAM5-monthly-ERA5_1975_2021.nc,0.0003553497071027231,1.4293558537754871,0.6739732434918486,1.1643315985068743,,2.3107986,3.3092144,0.77696276,0.015642747,7.1520705,40.988445,-387.35995,90.051346
392,473688.878596963,9.760749890108283e-05,MAR3.9_MIROC-ESM-CHEM_rcp26_ocean_1960-2100_v4.nc,HIRHAM5-monthly-ERA5_1975_2021.nc,0.00033391616294501443,1.289257940995052,0.710017580668719,1.6531258812247749,,2.445456,3.3197105,0.82337487,0.017500361,7.622748,43.807365,-509.0858,733.3967
393,513627.05761355825,0.00014119071447287807,MAR3.9_IPSL-CM5-MR_rcp85_ocean_1960-2100_v4.nc,HIRHAM5-monthly-ERA5_1975_2021.nc,0.0003319957334264963,1.6472511690586096,0.3044935451280648,1.131710858151779,pism_g450m_frontretreat_calfin_1972_2019.nc,2.3413737,3.2653375,0.8217124,0.018631907,6.21159,42.810524,-232.89754,47.308544
394,488230.83757043583,9.877335040217185e-05,MAR3.9_NorESM1-M_rcp85_ocean_1960-2100_v4.nc,HIRHAM5-monthly-ERA5_1975_2021.nc,0.0002539625768705686,1.453961059499018,0.393139380369185,1.4130630067412464,,2.7392585,3.2760818,0.65840364,0.025949387,8.625544,41.77031,-284.1093,367.20847
395,718328.4188719314,0.0001343348034250993,MAR3.9_NorESM1-M_rcp85_ocean_1960-2100_v4.nc,RACMO2.3p2_ERA5_FGRN055_1940_2023.nc,0.0002477563544253428,1.050107930512303,0.8231767629317599,1.325878355390941,pism_g450m_frontretreat_calfin_1972_2019.nc,2.3723862,3.2778814,0.8054994,0.016321706,5.454971,41.99109,-460.40237,162.10104
396,466347.45534185215,0.00010376954029197232,MAR3.9_MIROC-ESM-CHEM_rcp26_ocean_1960-2100_v4.nc,MARv3.14-monthly-ERA5_1940_2023.nc,0.0002582752719981261,1.3299013697841882,0.7487468736908138,1.6281359971792422,pism_g450m_frontretreat_calfin_1972_2019.nc,2.753335,3.3618104,0.7376621,0.014310845,8.870322,43.48337,-377.95087,134.42064
397,314193.15667321504,0.00014279868580796692,MAR3.9_IPSL-CM5-MR_rcp85_ocean_1960-2100_v4.nc,HIRHAM5-monthly-ERA5_1975_2021.nc,0.0002825463791898001,1.1731438844884485,0.5560637317888677,1.2966315182744501,,2.164054,3.3210397,0.76066834,0.025375599,5.8057604,42.485798,-402.98102,770.00037
398,351173.5148262431,0.00011237206616488337,MAR3.9_UKESM1-CM6_ssp585_ocean_1960-2100_v4.nc,HIRHAM5-monthly-ERA5_1975_2021.nc,0.00024102446367359277,1.1993191454108192,0.5526099651179573,1.4538745594296452,pism_g450m_frontretreat_calfin_1972_2019.nc,2.7824712,3.2836826,0.7865604,0.019242289,7.3806615,41.693985,-309.4102,155.99771
399,317071.3200067198,0.00014580935081966647,MAR3.9_ACCESS1-3_rcp85_ocean_1960-2100_v4.nc,RACMO2.3p2_ERA5_FGRN055_1940_2023.nc,0.00032897612574021807,1.18934127738057,0.38803133395913936,1.6826468083556831,pism_g450m_frontretreat_calfin_1972_2019.nc,2.6680424,3.3088498,0.6023897,0.01693496,9.094575,42.200333,-427.42416,217.47054
400,327314.8109411926,0.0001447569072452492,MAR3.9_ACCESS1-3_rcp85_ocean_1960-2100_v4.nc,RACMO2.3p2_ERA5_FGRN055_1940_2023.nc,0.0002961177722050449,1.141617874634381,0.7541057986722183,1.256910897824898,,2.1406505,3.3386796,0.8694437,0.011734885,8.008592,43.847626,-490.08615,250.79318
401,619259.2222513962,0.00012628372908858148,MAR3.9_HadGEM2-ES_rcp85_ocean_1960-2100_v4.nc,RACMO2.3p2_ERA5_FGRN055_1940_2023.nc,0.0003207450730495421,1.117997265646736,0.33810720986536874,1.6141899159662652,pism_g450m_frontretreat_calfin_1972_2019.nc,2.0379918,3.2973588,0.6822708,0.016704025,8.328596,43.601482,-450.8123,456.6352
402,318375.1448127494,0.0001256639653020286,MAR3.9_CNRM-CM6_ssp126_ocean_1960-2100_v4.nc,HIRHAM5-monthly-ERA5_1975_2021.nc,0.00026960745091348244,1.3856953711026438,0.5982193653526934,1.150725390417669,pism_g450m_frontretreat_calfin_1972_2019.nc,2.5085027,3.2719798,0.6456648,0.017090438,10.317688,41.785538,-309.01944,105.38329
403,785374.7433977637,9.787192078954877e-05,MAR3.9_IPSL-CM5-MR_rcp85_ocean_1960-2100_v4.nc,RACMO2.3p2_ERA5_FGRN055_1940_2023.nc,0.00030150910252630064,1.1317709631862032,0.600005707395848,1.7764925330508137,pism_g450m_frontretreat_calfin_1972_2019.nc,2.9771752,3.3227808,0.57745427,0.017612888,7.9220014,43.344532,-491.3533,121.15997
404,662944.9790807002,0.0001002844322457529,MAR3.9_HadGEM2-ES_rcp85_ocean_1960-2100_v4.nc,HIRHAM5-monthly-ERA5_1975_2021.nc,0.0002442537683354641,1.4489551360872195,0.7707173628007695,1.3972057369394864,,2.5025136,3.245649,0.8324935,0.019213973,6.222132,40.47659,-417.0892,364.90768
405,682983.6827958282,7.606623785385366e-05,MAR3.9_NorESM1-M_rcp85_ocean_1960-2100_v4.nc,RACMO2.3p2_ERA5_FGRN055_1940_2023.nc,0.00030032776269102993,1.1720067693221334,0.4078190375133653,1.57728317052118,,2.7905536,3.3375068,0.8238329,0.017349053,8.507687,43.795532,-234.4042,184.73781
406,778065.8188377086,0.00011140366334808685,MAR3.9_HadGEM2-ES_rcp85_ocean_1960-2100_v4.nc,MARv3.14-monthly-ERA5_1940_2023.nc,0.0002670994444911945,1.3201585784939116,0.5780554469779714,1.1557309813642673,,2.3262086,3.3139117,0.8346129,0.014351393,5.7268953,44.391705,-472.67188,388.17966
407,369962.91220614256,0.00014371087073253628,MAR3.9_IPSL-CM5-MR_rcp85_ocean_1960-2100_v4.nc,RACMO2.3p2_ERA5_FGRN055_1940_2023.nc,0.0002822204821644064,1.0802875036624249,0.6575885874270094,1.4723408950414782,pism_g450m_frontretreat_calfin_1972_2019.nc,2.3162246,3.2642033,0.63953036,0.014934949,7.2607236,42.167233,-326.41406,111.79742
408,301140.9561426105,0.0001374914026251106,MAR3.9_NorESM1-M_rcp85_ocean_1960-2100_v4.nc,RACMO2.3p2_ERA5_FGRN055_1940_2023.nc,0.0003277839492538261,1.5885876522888278,0.5705142863785324,1.7198029455890826,pism_g450m_frontretreat_calfin_1972_2019.nc,2.6429777,3.2858377,0.56698275,0.025619548,6.196586,41.32212,-726.53845,768.74695
409,755101.5574842296,0.00011986320752273161,MAR3.9_CNRM-ESM2_ssp585_ocean_1960-2100_v4.nc,RACMO2.3p2_ERA5_FGRN055_1940_2023.nc,0.0003386007859745687,1.5694538441169648,0.3009661569102007,1.3392260015256474,pism_g450m_frontretreat_calfin_1972_2019.nc,2.1183267,3.2790308,0.7190853,0.0201864,5.657227,42.034107,-372.94623,383.42203
410,396082.13708386564,9.945047368801388e-05,MAR3.9_ACCESS1-3_rcp85_ocean_1960-2100_v4.nc,MARv3.14-monthly-ERA5_1940_2023.nc,0.00035745422668418417,1.6328053864319527,0.30699624624975985,1.1651045409987462,,2.9237776,3.2890677,0.89687157,0.02145682,6.2839255,40.86009,-333.9646,171.70447
411,388514.37108526746,0.00010314463476004435,MAR3.9_CSIRO-Mk3.6_rcp85_ocean_1960-2100_v4.nc,RACMO2.3p2_ERA5_FGRN055_1940_2023.nc,0.0003229563769426469,1.3434324364440267,0.6722239155592246,1.525749277452802,,2.909019,3.313975,0.8678246,0.026531383,5.4662704,44.109642,-285.46304,120.60222
412,757644.5014755499,0.00012013709458457488,MAR3.9_IPSL-CM5-MR_rcp85_ocean_1960-2100_v4.nc,HIRHAM5-monthly-ERA5_1975_2021.nc,0.00026205414381860157,1.2548050633186536,0.6879100760346872,1.5425128970554094,pism_g450m_frontretreat_calfin_1972_2019.nc,2.117253,3.3164308,0.70534724,0.014670021,6.119263,42.49638,-468.97867,204.35594
413,707360.4944206274,0.00013548438314977198,MAR3.9_CNRM-CM6_ssp126_ocean_1960-2100_v4.nc,HIRHAM5-monthly-ERA5_1975_2021.nc,0.00031887218577495417,1.37535272958996,0.7937588504652671,1.69256519222358,,2.3733332,3.3617282,0.81062454,0.015644511,11.998826,43.591354,-354.4391,114.24244
414,400064.9277065901,0.00014941626446557838,MAR3.9_CNRM-ESM2_ssp585_ocean_1960-2100_v4.nc,RACMO2.3p2_ERA5_FGRN055_1940_2023.nc,0.0003533878561355913,1.08780902906462,0.8485150874866807,1.3597255139491125,,2.3330579,3.341248,0.8747937,0.017131709,6.5690804,43.587257,-459.0609,216.69878
415,375829.9647160845,9.25155507468848e-05,MAR3.9_HadGEM2-ES_rcp85_ocean_1960-2100_v4.nc,RACMO2.3p2_ERA5_FGRN055_1940_2023.nc,0.0003407132286267292,1.6622435577135213,0.7996446102101031,1.733936850263202,pism_g450m_frontretreat_calfin_1972_2019.nc,3.1053011,3.3273735,0.7182443,0.01923431,10.883138,41.57507,-310.5148,420.14517
416,430714.3999169911,9.344650596419532e-05,MAR3.9_ACCESS1-3_rcp85_ocean_1960-2100_v4.nc,HIRHAM5-monthly-ERA5_1975_2021.nc,0.00025169651831036797,1.3164354118711863,0.608971174150435,1.7374048412657073,,3.2127142,3.3381867,0.8401984,0.018133724,10.336477,42.623917,-310.603,118.29123
417,452694.12236539234,8.920359135901522e-05,MAR3.9_IPSL-CM5-MR_rcp85_ocean_1960-2100_v4.nc,HIRHAM5-monthly-ERA5_1975_2021.nc,0.00029399007736989434,1.0474395481579595,0.6583145681202542,1.1035029437893344,pism_g450m_frontretreat_calfin_1972_2019.nc,2.5030563,3.3330297,0.6706115,0.018718243,6.2231236,42.456627,-388.1481,317.24603
418,487200.62589192437,0.00010702984451624713,MAR3.9_NorESM1-M_rcp85_ocean_1960-2100_v4.nc,HIRHAM5-monthly-ERA5_1975_2021.nc,0.0002545950144016076,1.5563036274905668,0.820849272485048,1.7301524863742537,,2.557405,3.2928176,0.5713051,0.017474147,11.651212,41.89071,-359.50388,218.37953
419,719471.2794122135,0.00010615662030124607,MAR3.9_MIROC-ESM-CHEM_rcp26_ocean_1960-2100_v4.nc,MARv3.14-monthly-ERA5_1940_2023.nc,0.0003174787043013712,1.306651899330951,0.39149162288874945,1.5109072671614465,pism_g450m_frontretreat_calfin_1972_2019.nc,2.1433167,3.3516614,0.7112524,0.022040764,7.7795844,40.824493,-429.8879,304.71967
420,339233.1458193562,7.979935946877095e-05,MAR3.9_CNRM-ESM2_ssp585_ocean_1960-2100_v4.nc,HIRHAM5-monthly-ERA5_1975_2021.nc,0.00032596757801652806,1.5297366924263138,0.36915632987148006,1.332635468597333,pism_g450m_frontretreat_calfin_1972_2019.nc,2.8602262,3.2908063,0.7259663,0.018843194,6.7754655,42.49443,-479.1848,431.83664
421,668837.3755088199,0.00011633214672028418,MAR3.9_CSIRO-Mk3.6_rcp85_ocean_1960-2100_v4.nc,RACMO2.3p2_ERA5_FGRN055_1940_2023.nc,0.00031655609975146193,1.3902219507834959,0.8457731738762622,1.7873540624482889,pism_g450m_frontretreat_calfin_1972_2019.nc,2.812764,3.285353,0.6376444,0.016967067,7.872421,43.537502,-382.84036,167.32823
422,520312.6664340246,9.604625451538368e-05,MAR3.9_CSIRO-Mk3.6_rcp85_ocean_1960-2100_v4.nc,MARv3.14-monthly-ERA5_1940_2023.nc,0.0002809752211300528,1.2236304439386738,0.8059768035784969,1.299287170345268,pism_g450m_frontretreat_calfin_1972_2019.nc,2.466203,3.2548282,0.62483,0.023355437,8.05574,43.79474,-397.28464,653.1794
423,310807.2521240253,0.0001224892292719663,MAR3.9_NorESM1-M_rcp85_ocean_1960-2100_v4.nc,MARv3.14-monthly-ERA5_1940_2023.nc,0.0003387356510771626,1.5365722963661002,0.6601602345605819,1.2078335315820106,,2.5116997,3.3829038,0.62256706,0.017743777,10.160238,43.947052,-513.1799,398.1296
424,770527.4385919713,0.00013810188531478357,MAR3.9_CNRM-CM6_ssp126_ocean_1960-2100_v4.nc,HIRHAM5-monthly-ERA5_1975_2021.nc,0.000246394465811059,1.1037223866741859,0.4598375110663666,1.4249909254941309,pism_g450m_frontretreat_calfin_1972_2019.nc,2.3575506,3.3572042,0.82077,0.021955637,5.2386713,43.31711,-392.41522,674.486
425,366537.1635410733,0.00013156276611695037,MAR3.9_UKESM1-CM6_ssp585_ocean_1960-2100_v4.nc,HIRHAM5-monthly-ERA5_1975_2021.nc,0.00024541007593054847,1.2850495448717152,0.6783185619689246,1.7178441492499987,pism_g450m_frontretreat_calfin_1972_2019.nc,2.9110675,3.3644023,0.8033162,0.018407123,9.658637,43.990696,-279.3223,274.19086
426,419530.0093688562,0.00012190712683575336,MAR3.9_CSIRO-Mk3.6_rcp85_ocean_1960-2100_v4.nc,MARv3.14-monthly-ERA5_1940_2023.nc,0.0002664332008922009,1.027154696291004,0.5911537473401093,1.670764081694498,pism_g450m_frontretreat_calfin_1972_2019.nc,2.471777,3.3004692,0.8441425,0.020218626,5.549936,40.479187,-375.42352,319.4195
427,648035.5916461521,7.949786377394156e-05,MAR3.9_CNRM-ESM2_ssp585_ocean_1960-2100_v4.nc,MARv3.14-monthly-ERA5_1940_2023.nc,0.0002991254142706729,1.312075813648717,0.31507095120912204,1.2491469408936293,pism_g450m_frontretreat_calfin_1972_2019.nc,2.442684,3.2255604,0.7416052,0.021778058,7.265264,42.342308,-333.3512,273.15134
428,708649.4472539092,0.00013075893666015409,MAR3.9_ACCESS1-3_rcp85_ocean_1960-2100_v4.nc,MARv3.14-monthly-ERA5_1940_2023.nc,0.00035228055248203436,1.1709002484021847,0.6413385609300181,1.5855062219299016,pism_g450m_frontretreat_calfin_1972_2019.nc,1.9002163,3.4051807,0.6677358,0.016955275,8.356879,42.22319,-396.3008,300.4933
429,317850.8424199345,0.00012460918103969541,MAR3.9_ACCESS1-3_rcp85_ocean_1960-2100_v4.nc,MARv3.14-monthly-ERA5_1940_2023.nc,0.0002715779261578344,1.3667540316437083,0.4481655904360674,1.673717987816206,pism_g450m_frontretreat_calfin_1972_2019.nc,2.4008555,3.3392231,0.92938185,0.021936923,5.58083,44.2165,-272.12906,303.44495
430,442306.92411262996,8.656335228174578e-05,MAR3.9_HadGEM2-ES_rcp85_ocean_1960-2100_v4.nc,HIRHAM5-monthly-ERA5_1975_2021.nc,0.00035920175819850286,1.6519952493648105,0.4094323889724138,1.7943579589477245,pism_g450m_frontretreat_calfin_1972_2019.nc,2.135388,3.2673597,0.560908,0.018783418,8.718607,43.510605,-409.67978,296.0922
431,657838.0964851973,0.00012954875442397484,MAR3.9_MIROC-ESM-CHEM_rcp26_ocean_1960-2100_v4.nc,MARv3.14-monthly-ERA5_1940_2023.nc,0.00028880661378670924,1.4393695324341895,0.6862985486277364,1.7024134174726298,,2.960909,3.2650719,0.63350284,0.021440646,8.196451,43.21602,-384.65518,248.33003
432,321144.0832675446,0.00014196847210725657,MAR3.9_UKESM1-CM6_ssp585_ocean_1960-2100_v4.nc,HIRHAM5-monthly-ERA5_1975_2021.nc,0.00032801544894943906,1.3825277746764177,0.49163206501533685,1.3146438925536164,pism_g450m_frontretreat_calfin_1972_2019.nc,2.349279,3.338278,0.85960454,0.014708773,9.059965,44.504704,-326.58957,291.33258
433,471885.61884920666,0.00013287602620794752,MAR3.9_HadGEM2-ES_rcp85_ocean_1960-2100_v4.nc,RACMO2.3p2_ERA5_FGRN055_1940_2023.nc,0.0003153030558717196,1.111427033728903,0.4585455063531194,1.379899738936681,pism_g450m_frontretreat_calfin_1972_2019.nc,2.8780744,3.3323865,0.67171973,0.020497797,8.122599,42.40993,-300.24548,133.9329
434,360023.3101275381,8.428657107156798e-05,MAR3.9_HadGEM2-ES_rcp85_ocean_1960-2100_v4.nc,MARv3.14-monthly-ERA5_1940_2023.nc,0.00033570911557420245,1.6647732852645811,0.34170998256218377,1.3468723521777197,,2.6791508,3.3816488,0.8252482,0.016837122,6.977385,44.705757,-274.61642,238.93088
435,748784.301617956,0.00010380260635992547,MAR3.9_IPSL-CM5-MR_rcp85_ocean_1960-2100_v4.nc,MARv3.14-monthly-ERA5_1940_2023.nc,0.000253130312291866,1.5391112143161005,0.7947723447362909,1.5714706919934271,pism_g450m_frontretreat_calfin_1972_2019.nc,2.8017273,3.2764113,0.7224798,0.013717911,8.177888,43.905163,-449.78577,103.61684
436,559180.9123080276,0.0001010989020931577,MAR3.9_MIROC-ESM-CHEM_rcp26_ocean_1960-2100_v4.nc,MARv3.14-monthly-ERA5_1940_2023.nc,0.0002761539986791481,1.2192103145139181,0.3130369554607097,1.5796901388483446,,3.2068489,3.3035128,0.81649023,0.023872653,6.1619787,44.805122,-282.17984,404.67712
437,357026.6089224974,0.00014431439986254123,MAR3.9_IPSL-CM5-MR_rcp85_ocean_1960-2100_v4.nc,MARv3.14-monthly-ERA5_1940_2023.nc,0.00028443505715038944,1.463621789126606,0.3832464134372967,1.1842731256819972,pism_g450m_frontretreat_calfin_1972_2019.nc,1.8923658,3.3430724,0.78190386,0.014105812,7.628274,42.80193,-374.82678,177.8956
438,551320.9205847464,9.255087224322035e-05,MAR3.9_CNRM-CM6_ssp126_ocean_1960-2100_v4.nc,MARv3.14-monthly-ERA5_1940_2023.nc,0.00033936945890346873,1.0645444679908322,0.5993334134973946,1.576644463906263,,2.6557062,3.252924,0.70149624,0.017296884,8.448332,41.05584,-427.62106,219.63235
439,711725.3046089198,8.325366221644788e-05,MAR3.9_NorESM1-M_rcp85_ocean_1960-2100_v4.nc,RACMO2.3p2_ERA5_FGRN055_1940_2023.nc,0.00030283027007392126,1.0078532561996,0.5775390470148125,1.7393535052128313,,3.1145585,3.3206687,0.76329404,0.02345632,6.829299,40.32411,-219.10023,198.69333
440,634317.0575871465,0.00014725940040935694,MAR3.9_HadGEM2-ES_rcp85_ocean_1960-2100_v4.nc,RACMO2.3p2_ERA5_FGRN055_1940_2023.nc,0.00032863541807960135,1.4923925607123023,0.8297449322614461,1.4690867690973959,pism_g450m_frontretreat_calfin_1972_2019.nc,2.7925546,3.293274,0.87854266,0.019884158,6.8097777,43.09273,-340.95032,464.59717
441,463606.50192024955,0.00012627995224407732,MAR3.9_NorESM1-M_rcp85_ocean_1960-2100_v4.nc,RACMO2.3p2_ERA5_FGRN055_1940_2023.nc,0.00032277354983083754,1.071825997333264,0.6184327433543845,1.5045156319874669,pism_g450m_frontretreat_calfin_1972_2019.nc,2.6251202,3.3094552,0.5889665,0.016036676,7.7334547,42.638863,-414.09494,119.45051
442,703487.5167635289,0.00010041516526944683,MAR3.9_NorESM1-M_rcp85_ocean_1960-2100_v4.nc,MARv3.14-monthly-ERA5_1940_2023.nc,0.000330837946668873,1.1462713329797427,0.4295298787199094,1.6222797492349543,,3.2926955,3.3492403,0.86777544,0.018421298,7.0121493,43.886833,-370.20337,106.73461
443,704080.5621707793,8.582143274488022e-05,MAR3.9_ACCESS1-3_rcp85_ocean_1960-2100_v4.nc,RACMO2.3p2_ERA5_FGRN055_1940_2023.nc,0.0002901561040573247,1.2828296487505926,0.7241661790340573,1.1235531688219664,pism_g450m_frontretreat_calfin_1972_2019.nc,2.8563364,3.324949,0.79144883,0.022180296,8.457945,44.544746,-183.97081,138.40706
444,663507.9329712321,0.0001349995943991743,MAR3.9_CNRM-ESM2_ssp585_ocean_1960-2100_v4.nc,HIRHAM5-monthly-ERA5_1975_2021.nc,0.00030204347673029174,1.0212635118626177,0.5291267226751367,1.4179265067281754,,2.748716,3.3617132,0.683289,0.01886292,6.808749,42.32311,-415.77496,165.69275
445,408966.71033817064,0.00011331997188240389,MAR3.9_ACCESS1-3_rcp85_ocean_1960-2100_v4.nc,MARv3.14-monthly-ERA5_1940_2023.nc,0.000352599536720174,1.3933085318126754,0.780228964083282,1.3082943561764036,pism_g450m_frontretreat_calfin_1972_2019.nc,2.479344,3.350813,0.8282727,0.01581314,6.70905,44.095768,-342.14572,159.30952
446,481137.3691322548,0.00010802900717302226,MAR3.9_NorESM1-M_rcp85_ocean_1960-2100_v4.nc,RACMO2.3p2_ERA5_FGRN055_1940_2023.nc,0.00026465259041322296,1.2857289750692218,0.8072013818375565,1.7662693033252141,pism_g450m_frontretreat_calfin_1972_2019.nc,2.6003973,3.330286,0.89783424,0.019056423,6.598167,42.368687,-465.10257,344.73892
447,742712.3604424002,0.00011410621096970986,MAR3.9_CNRM-CM6_ssp126_ocean_1960-2100_v4.nc,MARv3.14-monthly-ERA5_1940_2023.nc,0.0003555380640645789,1.5437794230782178,0.39020811254750987,1.2841546589935016,,2.911264,3.2822542,0.6454713,0.020076126,11.302602,41.765076,-214.68053,129.44263
448,484491.17511976487,0.00010254440029986335,MAR3.9_ACCESS1-3_rcp85_ocean_1960-2100_v4.nc,MARv3.14-monthly-ERA5_1940_2023.nc,0.00028653410547754187,1.0256705443626104,0.5877723496895199,1.4322759467296613,,2.7087202,3.3702428,0.77033025,0.022170989,8.593799,44.528988,-393.28336,272.80554
449,330428.76491521363,0.00010949231434227339,MAR3.9_CNRM-CM6_ssp126_ocean_1960-2100_v4.nc,RACMO2.3p2_ERA5_FGRN055_1940_2023.nc,0.0002995508848941249,1.56828632574542,0.6756909113136851,1.139627042835871,pism_g450m_frontretreat_calfin_1972_2019.nc,2.0971909,3.262064,0.5872607,0.017651003,7.8338346,42.951675,-404.11932,230.8709
450,415840.3286254894,8.970804239213282e-05,MAR3.9_IPSL-CM5-MR_rcp85_ocean_1960-2100_v4.nc,RACMO2.3p2_ERA5_FGRN055_1940_2023.nc,0.00025621709495976525,1.0541733658250314,0.7602836249609419,1.3379364172219388,,2.722232,3.336187,0.6688706,0.016153367,6.6414046,43.038834,-484.08884,142.2739
451,644121.9337680491,7.84133809448977e-05,MAR3.9_IPSL-CM5-MR_rcp85_ocean_1960-2100_v4.nc,RACMO2.3p2_ERA5_FGRN055_1940_2023.nc,0.00028745082122422206,1.3781851724332896,0.4631312719052081,1.753569466778147,pism_g450m_frontretreat_calfin_1972_2019.nc,2.4673827,3.282442,0.71185124,0.018836383,9.321279,43.25161,-372.75027,287.5761
452,732348.0618737463,0.00014323376614962623,MAR3.9_IPSL-CM5-MR_rcp85_ocean_1960-2100_v4.nc,HIRHAM5-monthly-ERA5_1975_2021.nc,0.00024681813774826125,1.1076609669503394,0.3144270757739092,1.3330846012133704,,1.9005619,3.279678,0.6260815,0.014156324,7.520913,43.76267,-353.92725,55.905773
453,746342.5134225506,7.963648985174378e-05,MAR3.9_ACCESS1-3_rcp85_ocean_1960-2100_v4.nc,MARv3.14-monthly-ERA5_1940_2023.nc,0.00029751324110104886,1.3771161892748278,0.5336257846371406,1.7773081230152528,pism_g450m_frontretreat_calfin_1972_2019.nc,2.8711524,3.2772295,0.56379664,0.017276024,9.134002,43.54501,-481.01022,198.1573
454,399869.69089924416,9.231259464508321e-05,MAR3.9_HadGEM2-ES_rcp85_ocean_1960-2100_v4.nc,RACMO2.3p2_ERA5_FGRN055_1940_2023.nc,0.00029230820897618723,1.5667530138706505,0.8232878368952012,1.662892081597871,,2.178781,3.2925506,0.8559011,0.014359721,7.431599,42.956913,-421.6069,156.32751
455,697824.5596859707,0.00011074503904976053,MAR3.9_UKESM1-CM6_ssp585_ocean_1960-2100_v4.nc,MARv3.14-monthly-ERA5_1940_2023.nc,0.0003204382444327152,1.339830029432921,0.6310317501736985,1.6551818624025887,,2.098883,3.3109221,0.7763978,0.011842397,5.1751566,43.464336,-594.7527,307.82086
456,598128.6014730431,0.00014712451135487793,MAR3.9_CSIRO-Mk3.6_rcp85_ocean_1960-2100_v4.nc,MARv3.14-monthly-ERA5_1940_2023.nc,0.0002763130791625356,1.2688811242110467,0.6229721490495489,1.2629783113722055,,2.8913534,3.3152843,0.78380823,0.022428656,5.0649796,42.515644,-362.5999,255.37169
457,540649.9643103121,8.076760274399994e-05,MAR3.9_UKESM1-CM6_ssp585_ocean_1960-2100_v4.nc,RACMO2.3p2_ERA5_FGRN055_1940_2023.nc,0.0003148571511237973,1.591054181317722,0.727229237538487,1.2117556873634967,,2.6924748,3.3674006,0.87224007,0.022343295,7.561564,42.389416,-426.12274,588.4565
458,474727.65737111086,9.819909666920145e-05,MAR3.9_UKESM1-CM6_ssp585_ocean_1960-2100_v4.nc,HIRHAM5-monthly-ERA5_1975_2021.nc,0.00033287834356602957,1.6117508745134423,0.49610207184270894,1.290207932169029,pism_g450m_frontretreat_calfin_1972_2019.nc,2.8895497,3.3995097,0.8254892,0.017297471,14.198145,41.256165,-181.58926,195.0045
459,690719.1471726699,0.00010031973019143669,MAR3.9_CSIRO-Mk3.6_rcp85_ocean_1960-2100_v4.nc,MARv3.14-monthly-ERA5_1940_2023.nc,0.0003103360212582286,1.4785931388106688,0.6682811239866402,1.758448234351432,,2.0836837,3.359373,0.75497043,0.019924343,5.8108754,40.294888,-403.92953,91.24165
460,354253.9561740662,0.00012806162640957079,MAR3.9_MIROC-ESM-CHEM_rcp26_ocean_1960-2100_v4.nc,RACMO2.3p2_ERA5_FGRN055_1940_2023.nc,0.0002771823665860857,1.3695738937555155,0.6537269970654873,1.1561436262371223,pism_g450m_frontretreat_calfin_1972_2019.nc,2.6145024,3.3075273,0.8343302,0.018545222,7.247317,42.158684,-285.88046,51.89814
461,440622.10870356264,8.764578582793947e-05,MAR3.9_UKESM1-CM6_ssp585_ocean_1960-2100_v4.nc,HIRHAM5-monthly-ERA5_1975_2021.nc,0.00033149770356677026,1.0108279483374678,0.561704490006623,1.2898428039740288,,2.9820538,3.340998,0.67857933,0.020519065,7.9268346,40.95729,-351.01178,23.473726
462,654333.6687622451,0.00010171447327514719,MAR3.9_HadGEM2-ES_rcp85_ocean_1960-2100_v4.nc,RACMO2.3p2_ERA5_FGRN055_1940_2023.nc,0.00025980375343807226,1.637433960309109,0.3275823533260211,1.1186323060960628,pism_g450m_frontretreat_calfin_1972_2019.nc,2.9617014,3.313189,0.810072,0.01932777,7.841377,42.65245,-383.32602,303.12366
463,526900.6886724222,7.84820552016575e-05,MAR3.9_UKESM1-CM6_ssp585_ocean_1960-2100_v4.nc,MARv3.14-monthly-ERA5_1940_2023.nc,0.00034133910175909883,1.364469541681785,0.8449475959902397,1.2758412262844414,pism_g450m_frontretreat_calfin_1972_2019.nc,2.9364827,3.2579305,0.57864904,0.019737309,7.8987164,44.212383,-407.08694,249.43452
464,632939.6234347152,0.00011356370223215964,MAR3.9_CNRM-ESM2_ssp585_ocean_1960-2100_v4.nc,HIRHAM5-monthly-ERA5_1975_2021.nc,0.00032992157796480785,1.6263801688579245,0.6466368604509904,1.7786649073267933,,2.50794,3.3418612,0.80708766,0.01702262,5.1776557,42.933895,-494.08798,346.83038
465,731434.8121758786,0.00011194656136569685,MAR3.9_ACCESS1-3_rcp85_ocean_1960-2100_v4.nc,HIRHAM5-monthly-ERA5_1975_2021.nc,0.0002761226720918357,1.5235547336323418,0.6604658451005574,1.1959299240319916,,2.6856518,3.3087583,0.7470367,0.015005617,7.114873,42.543663,-358.4581,225.4889
466,375405.589531386,9.067199511738491e-05,MAR3.9_CNRM-CM6_ssp126_ocean_1960-2100_v4.nc,HIRHAM5-monthly-ERA5_1975_2021.nc,0.00032208574482476616,1.1251093417031204,0.3723959118878185,1.21527810443359,,2.4792824,3.3003924,0.86977553,0.015566577,5.973646,41.35947,-250.26328,82.45387
467,319533.38769410754,8.733379679400008e-05,MAR3.9_CSIRO-Mk3.6_rcp85_ocean_1960-2100_v4.nc,HIRHAM5-monthly-ERA5_1975_2021.nc,0.0002430006336108291,1.5553872145743972,0.6104776516480581,1.7175302391702703,,2.513295,3.3364286,0.7251125,0.017272405,5.355271,40.860535,-470.0414,249.60907
468,541646.8178952305,0.00010433724106887119,MAR3.9_CSIRO-Mk3.6_rcp85_ocean_1960-2100_v4.nc,RACMO2.3p2_ERA5_FGRN055_1940_2023.nc,0.0003471291767516958,1.5640776350367092,0.41418784287803007,1.479570019115498,pism_g450m_frontretreat_calfin_1972_2019.nc,2.8557749,3.3354073,0.70275295,0.014998184,7.555033,44.410187,-457.78366,87.77208
469,553581.1352501655,0.00014395008397401985,MAR3.9_MIROC-ESM-CHEM_rcp26_ocean_1960-2100_v4.nc,HIRHAM5-monthly-ERA5_1975_2021.nc,0.000257543927222576,1.33184683329558,0.8276853842924623,1.747950022461695,,2.8796518,3.2754982,0.7476126,0.020725904,5.199352,40.8679,-369.15622,391.90347
470,719268.9641703494,0.00010364776530109773,MAR3.9_IPSL-CM5-MR_rcp85_ocean_1960-2100_v4.nc,MARv3.14-monthly-ERA5_1940_2023.nc,0.0002525630856039951,1.4795006305413487,0.5016857298491328,1.1046697854846457,,2.6339452,3.290586,0.8970911,0.019164812,7.8708773,40.90558,-323.85016,232.67203
471,303117.1774712482,0.0001470592815561371,MAR3.9_IPSL-CM5-MR_rcp85_ocean_1960-2100_v4.nc,RACMO2.3p2_ERA5_FGRN055_1940_2023.nc,0.0002812363216839012,1.116731276114828,0.6016126815672889,1.3625680199920387,pism_g450m_frontretreat_calfin_1972_2019.nc,2.9099188,3.3200645,0.73131126,0.01737634,10.281843,41.59784,-603.3115,244.39342
472,620006.6643062173,0.00014061018756905756,MAR3.9_CNRM-CM6_ssp126_ocean_1960-2100_v4.nc,MARv3.14-monthly-ERA5_1940_2023.nc,0.0002725435351519503,1.297554727627153,0.5359481698557662,1.564260552450872,pism_g450m_frontretreat_calfin_1972_2019.nc,2.6092958,3.3994188,0.93063104,0.026629359,8.550202,44.130474,-290.32382,556.5527
473,485082.9001056177,8.995917785966192e-05,MAR3.9_MIROC-ESM-CHEM_rcp26_ocean_1960-2100_v4.nc,MARv3.14-monthly-ERA5_1940_2023.nc,0.00028534407194440484,1.0993102765056821,0.5268836965700968,1.6798002977992204,,3.1810455,3.3773966,0.7583381,0.027093489,8.486209,42.02546,-248.95033,407.41507
474,380073.0844113624,0.00010236121952574717,MAR3.9_MIROC-ESM-CHEM_rcp26_ocean_1960-2100_v4.nc,RACMO2.3p2_ERA5_FGRN055_1940_2023.nc,0.00031075961106268816,1.683265511853361,0.6915262503568919,1.4266763009500725,pism_g450m_frontretreat_calfin_1972_2019.nc,2.568008,3.288943,0.71199805,0.019907786,5.459418,44.626606,-524.00415,523.3114
475,752665.90570354,0.00014692290986919286,MAR3.9_NorESM1-M_rcp85_ocean_1960-2100_v4.nc,HIRHAM5-monthly-ERA5_1975_2021.nc,0.0002766015286007079,1.3045562511745936,0.49288628849945726,1.1101370353456586,pism_g450m_frontretreat_calfin_1972_2019.nc,2.9312563,3.3796413,0.8281345,0.014690021,8.143391,43.510098,-408.27948,64.14276
476,720743.6637468357,0.00012524792590266459,MAR3.9_HadGEM2-ES_rcp85_ocean_1960-2100_v4.nc,HIRHAM5-monthly-ERA5_1975_2021.nc,0.00034318839074685,1.1094146496073056,0.7085035645852165,1.4430368256533723,pism_g450m_frontretreat_calfin_1972_2019.nc,2.861641,3.2952461,0.72543794,0.019367697,5.511468,44.659653,-425.0527,283.3936
477,332898.6715667687,0.00013478706958136078,MAR3.9_NorESM1-M_rcp85_ocean_1960-2100_v4.nc,MARv3.14-monthly-ERA5_1940_2023.nc,0.0002671973204869168,1.5061650066064942,0.5701191066927014,1.600502313558118,pism_g450m_frontretreat_calfin_1972_2019.nc,2.6132472,3.2958386,0.74872506,0.014146031,6.0180984,44.708454,-406.7318,147.07372
478,592024.4443151896,0.00011821025557945159,MAR3.9_IPSL-CM5-MR_rcp85_ocean_1960-2100_v4.nc,MARv3.14-monthly-ERA5_1940_2023.nc,0.0003157394134580769,1.0662236653360886,0.83087113184913,1.5738807094565102,,2.4801037,3.3310676,0.72924995,0.014958363,7.83487,43.323395,-550.9728,324.67606
479,411894.6209248245,0.00010593835138490091,MAR3.9_HadGEM2-ES_rcp85_ocean_1960-2100_v4.nc,HIRHAM5-monthly-ERA5_1975_2021.nc,0.00031387833339806227,1.4367676551643536,0.6848562595944421,1.3412561026665966,pism_g450m_frontretreat_calfin_1972_2019.nc,2.3481522,3.3147593,0.8507904,0.014014723,7.970303,43.707718,-322.52893,100.95157
480,762703.9902019271,0.00012855788283202082,MAR3.9_UKESM1-CM6_ssp585_ocean_1960-2100_v4.nc,RACMO2.3p2_ERA5_FGRN055_1940_2023.nc,0.00035651286766830197,1.5090296584530702,0.3215463959638692,1.745456606867587,,2.4707925,3.331586,0.8216069,0.019213751,5.8521914,43.63496,-419.70685,243.84245
481,737028.3850897171,0.000105322020615921,MAR3.9_ACCESS1-3_rcp85_ocean_1960-2100_v4.nc,HIRHAM5-monthly-ERA5_1975_2021.nc,0.0002545252590586801,1.4246438321837231,0.32738570251067434,1.2124384343152208,,2.4922101,3.3196678,0.7045569,0.025808569,7.6662526,40.222744,-270.81525,478.77307
482,383441.02758460364,9.384094902040494e-05,MAR3.9_ACCESS1-3_rcp85_ocean_1960-2100_v4.nc,MARv3.14-monthly-ERA5_1940_2023.nc,0.00030915896478909694,1.3328556948421004,0.4572646617974469,1.7997583281281675,pism_g450m_frontretreat_calfin_1972_2019.nc,2.3531315,3.2118003,0.69360274,0.018900225,7.577604,40.692593,-351.36526,325.67813
483,686034.8994930638,0.0001079421185989713,MAR3.9_ACCESS1-3_rcp85_ocean_1960-2100_v4.nc,RACMO2.3p2_ERA5_FGRN055_1940_2023.nc,0.0002823414216879005,1.0195577750057456,0.6168304305589474,1.4033256735747157,,2.9079099,3.2374363,0.7580562,0.01591154,9.74483,41.723118,-295.16855,163.22878
484,716116.3424074205,0.00010332435011743181,MAR3.9_CNRM-CM6_ssp126_ocean_1960-2100_v4.nc,RACMO2.3p2_ERA5_FGRN055_1940_2023.nc,0.0003021313765566549,1.1552885753302005,0.8384790473479882,1.2138217582911632,pism_g450m_frontretreat_calfin_1972_2019.nc,2.5480483,3.251244,0.768921,0.017575616,8.559138,42.30862,-231.53383,145.18211
485,436752.1130079221,0.00012603505998230117,MAR3.9_UKESM1-CM6_ssp585_ocean_1960-2100_v4.nc,HIRHAM5-monthly-ERA5_1975_2021.nc,0.00035125492606618967,1.5076160824968625,0.4318075847145477,1.7859760893234173,,2.8217182,3.3028245,0.779823,0.018882921,10.304741,42.182404,-198.86472,245.66103
486,608158.8693866036,0.0001474891961325104,MAR3.9_NorESM1-M_rcp85_ocean_1960-2100_v4.nc,MARv3.14-monthly-ERA5_1940_2023.nc,0.00033847048712116784,1.1767437559040963,0.7916803981261338,1.569083654514903,,2.3602402,3.212291,0.6579221,0.01696067,5.999456,43.03542,-490.61844,406.59842
487,465860.2254521017,0.00010062308414159456,MAR3.9_NorESM1-M_rcp85_ocean_1960-2100_v4.nc,RACMO2.3p2_ERA5_FGRN055_1940_2023.nc,0.000296577310554064,1.4816962265166786,0.39510453946296736,1.5927963082989585,pism_g450m_frontretreat_calfin_1972_2019.nc,2.2157202,3.2461276,0.54072106,0.019997908,10.203237,40.601357,-259.1642,233.35298
488,509542.1537087211,9.476024404456909e-05,MAR3.9_ACCESS1-3_rcp85_ocean_1960-2100_v4.nc,MARv3.14-monthly-ERA5_1940_2023.nc,0.0002686541273032604,1.5957706126448636,0.7596279352592996,1.580853016637437,,2.7914953,3.2897065,0.65837044,0.01791328,7.4663587,44.189037,-456.92444,207.55875
489,324318.78538983007,7.620563903471092e-05,MAR3.9_CNRM-CM6_ssp126_ocean_1960-2100_v4.nc,RACMO2.3p2_ERA5_FGRN055_1940_2023.nc,0.00035287977717414216,1.6868113214825282,0.8346781171712405,1.194663258322161,,2.266238,3.3279529,0.72126126,0.016491048,10.509706,40.874996,-503.96634,303.37265
490,779662.2224098714,0.00010622583097611425,MAR3.9_IPSL-CM5-MR_rcp85_ocean_1960-2100_v4.nc,RACMO2.3p2_ERA5_FGRN055_1940_2023.nc,0.0003432769826312562,1.5113141875550733,0.3684238490088889,1.3938483881212642,pism_g450m_frontretreat_calfin_1972_2019.nc,2.5245306,3.297308,0.8604616,0.013254516,6.8602047,42.82368,-467.30814,121.99128
491,398143.40307428484,0.00010499872570970381,MAR3.9_CNRM-ESM2_ssp585_ocean_1960-2100_v4.nc,MARv3.14-monthly-ERA5_1940_2023.nc,0.00034465895822217665,1.4344081253523573,0.5480511539959212,1.4923372789628433,pism_g450m_frontretreat_calfin_1972_2019.nc,2.772262,3.339615,0.80619645,0.021451995,10.417474,43.124428,-449.53644,243.78732
492,591515.0674191051,0.00012357715839084855,MAR3.9_CNRM-ESM2_ssp585_ocean_1960-2100_v4.nc,MARv3.14-monthly-ERA5_1940_2023.nc,0.0002674064933426929,1.4264094444226232,0.32360254232694835,1.7146786411564379,,2.3664625,3.30796,0.84314483,0.016744778,7.082361,42.22454,-327.1539,124.637535
493,617462.3335727792,0.00013137986860543952,MAR3.9_CNRM-CM6_ssp126_ocean_1960-2100_v4.nc,RACMO2.3p2_ERA5_FGRN055_1940_2023.nc,0.0003140484034352297,1.384997303263234,0.3731104960099557,1.4639960080870205,,2.5192683,3.334038,0.7612496,0.017784834,6.0378876,41.93046,-416.22708,225.3698
494,582144.1374590197,8.21801669737952e-05,MAR3.9_ACCESS1-3_rcp85_ocean_1960-2100_v4.nc,MARv3.14-monthly-ERA5_1940_2023.nc,0.0003599076236648912,1.3224825922352195,0.7621609910978298,1.3092193587557186,,3.0568004,3.3207593,0.72216463,0.024568414,5.8375607,44.370247,-304.28964,339.2385
495,442928.2702438852,0.00013388944119281833,MAR3.9_UKESM1-CM6_ssp585_ocean_1960-2100_v4.nc,RACMO2.3p2_ERA5_FGRN055_1940_2023.nc,0.0003325173510341802,1.49550650100708,0.6667810435866115,1.515195994921248,,2.7684681,3.3408449,0.7261005,0.023603866,6.445251,44.629276,-329.7262,458.4048
496,643057.9156023879,0.00012243424786714498,MAR3.9_HadGEM2-ES_rcp85_ocean_1960-2100_v4.nc,RACMO2.3p2_ERA5_FGRN055_1940_2023.nc,0.00024648600752235397,1.2929009349492875,0.5803629837572406,1.2006937427771507,pism_g450m_frontretreat_calfin_1972_2019.nc,3.2233117,3.3239236,0.7343983,0.020587636,6.062066,43.15241,-340.19943,79.38528
497,352280.5935395178,0.0001449253292703388,MAR3.9_CNRM-ESM2_ssp585_ocean_1960-2100_v4.nc,MARv3.14-monthly-ERA5_1940_2023.nc,0.00035320805528520603,1.042865164896998,0.72671390481479,1.441584706499224,,2.4780605,3.259559,0.73713154,0.02375281,7.3038373,42.104996,-297.18063,403.26862
498,737786.64541289,8.00100692348328e-05,MAR3.9_IPSL-CM5-MR_rcp85_ocean_1960-2100_v4.nc,HIRHAM5-monthly-ERA5_1975_2021.nc,0.0003452664225002154,1.667301839759734,0.3017887991199072,1.3945360422438635,,2.154322,3.3387852,0.70460325,0.018366454,8.206275,41.14169,-332.77826,300.03082
499,679375.5549900469,0.00012288118035072774,MAR3.9_NorESM1-M_rcp85_ocean_1960-2100_v4.nc,MARv3.14-monthly-ERA5_1940_2023.nc,0.0003549493686093545,1.6105562288328261,0.7109386135884519,1.192250368471163,,2.2689624,3.3206892,0.8475572,0.018562209,8.0910425,42.818558,-277.08377,229.08044
500,507843.61496813025,0.00013680286849168148,MAR3.9_HadGEM2-ES_rcp85_ocean_1960-2100_v4.nc,RACMO2.3p2_ERA5_FGRN055_1940_2023.nc,0.0003241946610546245,1.3609740350609565,0.7365421273323947,1.169726833261296,,2.6895182,3.3053129,0.57179075,0.020388339,6.14437,43.20673,-478.32236,480.212
501,315861.02132667415,0.00011175983095037307,MAR3.9_ACCESS1-3_rcp85_ocean_1960-2100_v4.nc,RACMO2.3p2_ERA5_FGRN055_1940_2023.nc,0.0003235200783570332,1.5803179775532206,0.6768762437790237,1.523524952455474,,2.7900064,3.34517,0.9021644,0.020426083,5.607814,43.5928,-304.7534,233.74742
502,711911.8179857044,0.00013173654177078557,MAR3.9_MIROC-ESM-CHEM_rcp26_ocean_1960-2100_v4.nc,RACMO2.3p2_ERA5_FGRN055_1940_2023.nc,0.00026018575117859406,1.3659315110909054,0.4560449558450077,1.360563484711967,,2.4182863,3.3318255,0.8025873,0.0141204195,5.6641827,43.21651,-473.5129,122.08954
503,361023.86840570014,8.31787352938102e-05,MAR3.9_IPSL-CM5-MR_rcp85_ocean_1960-2100_v4.nc,MARv3.14-monthly-ERA5_1940_2023.nc,0.00025323896166646595,1.1203578163113481,0.45176552810924897,1.4391047431785524,pism_g450m_frontretreat_calfin_1972_2019.nc,2.6453059,3.3043778,0.7499013,0.01901429,6.1239753,42.287487,-339.22217,159.17111
504,326084.47506310575,0.00011427054328051232,MAR3.9_HadGEM2-ES_rcp85_ocean_1960-2100_v4.nc,MARv3.14-monthly-ERA5_1940_2023.nc,0.00025730894228786084,1.1379669590117756,0.6978615434142456,1.1369679311953576,pism_g450m_frontretreat_calfin_1972_2019.nc,2.4652307,3.3525121,0.69940925,0.014310493,7.9979,43.86817,-594.3367,303.67432
505,311951.5010030513,0.00010838142586671385,MAR3.9_ACCESS1-3_rcp85_ocean_1960-2100_v4.nc,MARv3.14-monthly-ERA5_1940_2023.nc,0.0003055070333111004,1.3031747325460366,0.7221455290453236,1.3823432722629907,,2.7573218,3.3155644,0.7867424,0.02183401,6.3556023,42.814342,-247.17384,100.05479
506,446138.80603155895,9.431270034473899e-05,MAR3.9_CNRM-CM6_ssp126_ocean_1960-2100_v4.nc,HIRHAM5-monthly-ERA5_1975_2021.nc,0.00025773184257180305,1.5207333774241811,0.5286928057593805,1.445310086757732,pism_g450m_frontretreat_calfin_1972_2019.nc,2.2567787,3.222057,0.6463672,0.016557148,5.939618,42.24935,-423.25174,288.17194
507,391710.8356244534,0.00012709277774605976,MAR3.9_HadGEM2-ES_rcp85_ocean_1960-2100_v4.nc,RACMO2.3p2_ERA5_FGRN055_1940_2023.nc,0.0003097252270423054,1.2883652996951378,0.42430106091358893,1.5861904818461057,,2.5181236,3.3100164,0.85491276,0.016799936,5.562604,43.523838,-404.14133,296.3552
508,777042.1269610561,0.00010689394291828948,MAR3.9_IPSL-CM5-MR_rcp85_ocean_1960-2100_v4.nc,MARv3.14-monthly-ERA5_1940_2023.nc,0.000327266650965628,1.5018558138142772,0.3635005020971338,1.5993865838142405,pism_g450m_frontretreat_calfin_1972_2019.nc,2.937795,3.3052814,0.7490576,0.02251302,8.302761,42.61849,-283.05392,308.68518
509,448066.7385341198,0.00014617399480532192,MAR3.9_CNRM-CM6_ssp126_ocean_1960-2100_v4.nc,HIRHAM5-monthly-ERA5_1975_2021.nc,0.0002861101274327739,1.004092319862586,0.7952333633275339,1.2822710877289247,,2.993593,3.3433814,0.6417038,0.027681578,6.2950673,44.250614,-264.2695,455.36652
510,778966.973488664,8.818258995654468e-05,MAR3.9_CSIRO-Mk3.6_rcp85_ocean_1960-2100_v4.nc,MARv3.14-monthly-ERA5_1940_2023.nc,0.0002834006617676448,1.0066421295971844,0.42236962134565514,1.7348348223088985,pism_g450m_frontretreat_calfin_1972_2019.nc,2.3495545,3.3089042,0.74198824,0.017089795,8.283076,42.039867,-447.19662,398.0324
511,470059.969892467,0.00013952862702344462,MAR3.9_CSIRO-Mk3.6_rcp85_ocean_1960-2100_v4.nc,MARv3.14-monthly-ERA5_1940_2023.nc,0.0003058410752046757,1.1944895793798964,0.742530837875252,1.218157416792902,,2.8426971,3.3302484,0.660773,0.025062973,5.4623737,42.64026,-483.81445,566.24207
512,554825.9625610843,7.597361600486496e-05,MAR3.9_CNRM-CM6_ssp126_ocean_1960-2100_v4.nc,HIRHAM5-monthly-ERA5_1975_2021.nc,0.000261431748989772,1.4200181590870815,0.36311787305172866,1.7250580598506957,pism_g450m_frontretreat_calfin_1972_2019.nc,2.484447,3.3288975,0.5624533,0.017117307,9.475036,43.43601,-488.91238,236.84845
513,788805.5777866435,0.00011244396946957899,MAR3.9_NorESM1-M_rcp85_ocean_1960-2100_v4.nc,RACMO2.3p2_ERA5_FGRN055_1940_2023.nc,0.00026627198741549084,1.2014597627154917,0.7608150303270261,1.4461360729639325,,2.822483,3.2734914,0.75870115,0.0203985,7.947702,44.487003,-269.57346,168.94588
514,464361.1517090029,8.709711427122825e-05,MAR3.9_CNRM-ESM2_ssp585_ocean_1960-2100_v4.nc,MARv3.14-monthly-ERA5_1940_2023.nc,0.0002847041593749049,1.5262002186109882,0.6638923454573489,1.6082946819581774,,2.31068,3.290926,0.7931281,0.017137453,7.1010647,42.999603,-315.0611,22.517744
515,517854.7556736877,0.00011108307194735963,MAR3.9_IPSL-CM5-MR_rcp85_ocean_1960-2100_v4.nc,MARv3.14-monthly-ERA5_1940_2023.nc,0.00035678126661785824,1.1479127878407744,0.7670770630510922,1.6303472053669208,pism_g450m_frontretreat_calfin_1972_2019.nc,3.0449467,3.3537393,0.884943,0.020031206,6.3163533,43.39329,-411.20963,217.77403
516,489787.7724893025,8.50507484547296e-05,MAR3.9_HadGEM2-ES_rcp85_ocean_1960-2100_v4.nc,HIRHAM5-monthly-ERA5_1975_2021.nc,0.00031178934525132935,1.6040673677062212,0.6374835134332917,1.1471354190392313,,2.9256587,3.2738373,0.8434926,0.023876082,6.2862515,40.9209,-227.51074,331.8681
517,747157.2110768887,8.708473808039725e-05,MAR3.9_MIROC-ESM-CHEM_rcp26_ocean_1960-2100_v4.nc,MARv3.14-monthly-ERA5_1940_2023.nc,0.0002862309618311138,1.431032351768865,0.43252228849968866,1.3899183907644939,,3.2243412,3.3471613,0.6359314,0.026000453,5.8030443,42.055847,-353.1798,365.97437
518,791952.692970261,0.00014876121808593198,MAR3.9_ACCESS1-3_rcp85_ocean_1960-2100_v4.nc,MARv3.14-monthly-ERA5_1940_2023.nc,0.0003121914220948219,1.1085734226461625,0.8061623383856387,1.6451628911519847,pism_g450m_frontretreat_calfin_1972_2019.nc,2.811783,3.3115509,0.74009484,0.022511117,8.887776,44.0611,-229.58421,181.36363
519,687389.1637841007,0.00010355055874586014,MAR3.9_ACCESS1-3_rcp85_ocean_1960-2100_v4.nc,RACMO2.3p2_ERA5_FGRN055_1940_2023.nc,0.00033045187396034853,1.196623264287977,0.7022126057748048,1.35139781320362,pism_g450m_frontretreat_calfin_1972_2019.nc,2.6029727,3.3138938,0.76938176,0.021691471,8.313456,42.899574,-350.52902,252.97264
520,512616.7298688969,0.00011474030410790654,MAR3.9_IPSL-CM5-MR_rcp85_ocean_1960-2100_v4.nc,HIRHAM5-monthly-ERA5_1975_2021.nc,0.00025593971781963365,1.1186039718607024,0.7044710656338209,1.5745321604810538,pism_g450m_frontretreat_calfin_1972_2019.nc,3.2702918,3.333056,0.67526656,0.022954509,6.936832,43.576595,-288.2557,329.8505
521,444063.6968608313,0.00012767204597976235,MAR3.9_CSIRO-Mk3.6_rcp85_ocean_1960-2100_v4.nc,RACMO2.3p2_ERA5_FGRN055_1940_2023.nc,0.00030181682204688233,1.0285029876978509,0.5816749129005838,1.1610013630221294,pism_g450m_frontretreat_calfin_1972_2019.nc,2.4899411,3.3155913,0.6187089,0.018223125,8.531456,40.98121,-502.03506,249.15541
522,523656.0665295903,0.00011611374069244799,MAR3.9_ACCESS1-3_rcp85_ocean_1960-2100_v4.nc,MARv3.14-monthly-ERA5_1940_2023.nc,0.00029320629760621063,1.1225700307487319,0.6024834812778166,1.6730323227055521,,2.642369,3.330074,0.5738719,0.018595876,11.036871,42.235126,-378.44263,167.46097
523,589086.9207447132,9.004755939333667e-05,MAR3.9_UKESM1-CM6_ssp585_ocean_1960-2100_v4.nc,MARv3.14-monthly-ERA5_1940_2023.nc,0.00031696147499080747,1.5161190496346455,0.47737245547757334,1.5547682816610044,pism_g450m_frontretreat_calfin_1972_2019.nc,2.2945454,3.3427715,0.6704295,0.014089571,7.792165,43.81288,-573.0638,201.08374
524,750873.7913276346,9.533032271893496e-05,MAR3.9_UKESM1-CM6_ssp585_ocean_1960-2100_v4.nc,MARv3.14-monthly-ERA5_1940_2023.nc,0.00032239100698635734,1.5727154481401076,0.7886850490939401,1.238819592331879,,2.913176,3.274878,0.7173361,0.02516749,8.243162,42.35814,-408.4365,676.77704
525,517270.6501716921,0.00010142109856277216,MAR3.9_UKESM1-CM6_ssp585_ocean_1960-2100_v4.nc,MARv3.14-monthly-ERA5_1940_2023.nc,0.00029625642511144334,1.5415569449683972,0.5582378790937588,1.768403522427774,,2.5010242,3.2923393,0.789614,0.020694003,6.296915,43.6799,-349.89505,270.46826
526,549160.7079789795,9.936704835776554e-05,MAR3.9_MIROC-ESM-CHEM_rcp26_ocean_1960-2100_v4.nc,MARv3.14-monthly-ERA5_1940_2023.nc,0.00035352971639801523,1.6681485840494248,0.765157075262977,1.2788186052255655,pism_g450m_frontretreat_calfin_1972_2019.nc,2.775782,3.266221,0.7679224,0.016764803,5.9094443,43.787308,-346.91663,214.04095
527,400686.1230460509,0.0001485063115150803,MAR3.9_UKESM1-CM6_ssp585_ocean_1960-2100_v4.nc,MARv3.14-monthly-ERA5_1940_2023.nc,0.00029407383559169946,1.2567819305741756,0.7214550622411582,1.7406686753298315,pism_g450m_frontretreat_calfin_1972_2019.nc,2.403367,3.358455,0.78308964,0.017992023,9.091668,43.118015,-276.35007,77.24845
528,492365.92997696716,0.00011796176164438,MAR3.9_UKESM1-CM6_ssp585_ocean_1960-2100_v4.nc,HIRHAM5-monthly-ERA5_1975_2021.nc,0.00035891955133695035,1.531026206510683,0.7877064804133376,1.5434778907960647,pism_g450m_frontretreat_calfin_1972_2019.nc,1.9759517,3.2256758,0.8343427,0.0151858,5.3644342,41.404915,-256.2272,60.894222
529,433075.4010141037,0.00014574468689533248,MAR3.9_MIROC-ESM-CHEM_rcp26_ocean_1960-2100_v4.nc,MARv3.14-monthly-ERA5_1940_2023.nc,0.0003402795320927535,1.30236650275999,0.38889091250520536,1.6110905406855462,pism_g450m_frontretreat_calfin_1972_2019.nc,2.6011417,3.2993205,0.78391397,0.024570942,5.301017,43.065235,-304.79797,351.42163
530,565225.5936772383,0.00011018376297697562,MAR3.9_NorESM1-M_rcp85_ocean_1960-2100_v4.nc,HIRHAM5-monthly-ERA5_1975_2021.nc,0.00024209282405528935,1.3529535284471146,0.47276058276590177,1.3382000311323903,,2.3907208,3.256658,0.55241597,0.017787388,7.7805967,43.845276,-417.69727,138.74632
531,334731.56558580336,0.00013338662839141474,MAR3.9_ACCESS1-3_rcp85_ocean_1960-2100_v4.nc,HIRHAM5-monthly-ERA5_1975_2021.nc,0.00033168387205921877,1.2425406582806267,0.34387900881285466,1.7692080596975108,pism_g450m_frontretreat_calfin_1972_2019.nc,2.9423718,3.2492208,0.5932632,0.024042906,9.039229,44.291332,-213.7506,276.54498
532,396352.42380238185,9.85729259905106e-05,MAR3.9_CNRM-CM6_ssp126_ocean_1960-2100_v4.nc,MARv3.14-monthly-ERA5_1940_2023.nc,0.0002607742539048873,1.4786856001678328,0.5520338538900733,1.526663365920825,pism_g450m_frontretreat_calfin_1972_2019.nc,2.350104,3.3195086,0.8985578,0.023123164,5.4322653,42.450134,-186.62326,303.44604
533,780500.7924679589,0.00014916385110076897,MAR3.9_CNRM-CM6_ssp126_ocean_1960-2100_v4.nc,MARv3.14-monthly-ERA5_1940_2023.nc,0.0003397754633711944,1.4022052184179807,0.729737768675621,1.546700094927329,pism_g450m_frontretreat_calfin_1972_2019.nc,2.7550282,3.305316,0.5775213,0.027065296,8.597256,40.513023,-229.48927,230.76047
534,366022.2999386315,0.0001357208124295867,MAR3.9_NorESM1-M_rcp85_ocean_1960-2100_v4.nc,HIRHAM5-monthly-ERA5_1975_2021.nc,0.0002519853654871012,1.513599738440682,0.7786102589787665,1.627372452741315,,2.8578093,3.3686776,0.8547291,0.020394431,5.3292723,43.600704,-419.40256,278.42197
535,752329.5088330479,0.00012667052560645122,MAR3.9_CNRM-ESM2_ssp585_ocean_1960-2100_v4.nc,HIRHAM5-monthly-ERA5_1975_2021.nc,0.0003425273086390892,1.3096748199132504,0.7211883676673889,1.6850889332171697,,1.9099694,3.2758706,0.82285255,0.012335145,6.654341,44.072487,-500.18597,200.60248
536,569371.2086282793,0.0001479165975675525,MAR3.9_MIROC-ESM-CHEM_rcp26_ocean_1960-2100_v4.nc,HIRHAM5-monthly-ERA5_1975_2021.nc,0.00030657682057752176,1.446860929360712,0.4085895550627957,1.336979704102539,pism_g450m_frontretreat_calfin_1972_2019.nc,2.769994,3.2994962,0.75377405,0.017690958,11.441992,43.15771,-386.9775,388.78653
537,741740.024415351,0.0001325430704199053,MAR3.9_HadGEM2-ES_rcp85_ocean_1960-2100_v4.nc,HIRHAM5-monthly-ERA5_1975_2021.nc,0.00030341322874421014,1.617244189157189,0.7772376594770073,1.1931999248300205,,3.2793746,3.3379266,0.6166455,0.027613692,6.709983,42.076653,-363.81097,455.3617
538,438834.24153019604,9.665280986802637e-05,MAR3.9_ACCESS1-3_rcp85_ocean_1960-2100_v4.nc,RACMO2.3p2_ERA5_FGRN055_1940_2023.nc,0.00035785020931142957,1.6580740896029147,0.40342048402095754,1.625299828496545,pism_g450m_frontretreat_calfin_1972_2019.nc,2.3448186,3.3176625,0.80175155,0.014421668,9.328567,40.63791,-356.34833,172.29616
539,750392.95451089,0.00014988811425291484,MAR3.9_ACCESS1-3_rcp85_ocean_1960-2100_v4.nc,HIRHAM5-monthly-ERA5_1975_2021.nc,0.0002617358317247353,1.0208301695738786,0.5606022757504899,1.6205265146838177,pism_g450m_frontretreat_calfin_1972_2019.nc,2.9453454,3.3023732,0.7017927,0.022910051,8.87832,40.932987,-342.057,295.97867
540,793440.8616281394,9.061938430877906e-05,MAR3.9_CSIRO-Mk3.6_rcp85_ocean_1960-2100_v4.nc,MARv3.14-monthly-ERA5_1940_2023.nc,0.0003143609372203292,1.0728158899185063,0.7034223043892236,1.3420887520328528,,2.8074439,3.375771,0.87694,0.025557557,6.9023943,43.027897,-322.5268,566.335
541,661139.3954029375,0.00010962926470028367,MAR3.9_CNRM-ESM2_ssp585_ocean_1960-2100_v4.nc,MARv3.14-monthly-ERA5_1940_2023.nc,0.0003016717441379262,1.24982037635686,0.3467726792548601,1.1827693266647505,,2.5300333,3.3153172,0.67573047,0.018172275,7.3750505,43.55496,-511.96542,172.59636
542,612230.4786069959,8.598243845647507e-05,MAR3.9_CNRM-ESM2_ssp585_ocean_1960-2100_v4.nc,HIRHAM5-monthly-ERA5_1975_2021.nc,0.00027577507635827606,1.1704344533048845,0.33500468289675905,1.549492952691152,pism_g450m_frontretreat_calfin_1972_2019.nc,1.8309397,3.3233438,0.7120343,0.012165711,12.8907585,43.555954,-329.3905,206.3162
543,757228.6712969269,0.0001134732094547446,MAR3.9_HadGEM2-ES_rcp85_ocean_1960-2100_v4.nc,RACMO2.3p2_ERA5_FGRN055_1940_2023.nc,0.0003574147052148603,1.6289647397451783,0.7370714863528952,1.2602512293261203,,2.1929429,3.3480587,0.8764809,0.015772177,9.313522,43.305454,-741.0253,718.04663
544,622686.1692812657,0.00014462114907490953,MAR3.9_CSIRO-Mk3.6_rcp85_ocean_1960-2100_v4.nc,HIRHAM5-monthly-ERA5_1975_2021.nc,0.00032521012427447015,1.6033067908863545,0.8220533452976309,1.442768856410092,,2.3951712,3.2983918,0.77223873,0.021203231,6.933166,42.193943,-264.1765,259.78644
545,547744.7093593196,9.023741757049467e-05,MAR3.9_UKESM1-CM6_ssp585_ocean_1960-2100_v4.nc,RACMO2.3p2_ERA5_FGRN055_1940_2023.nc,0.00028133434615704167,1.5677029709019394,0.5049431516761244,1.287864439384927,pism_g450m_frontretreat_calfin_1972_2019.nc,2.5276423,3.3057058,0.7301594,0.013336853,8.650206,42.354275,-490.54706,229.28479
546,713391.8474819958,7.936053799799502e-05,MAR3.9_HadGEM2-ES_rcp85_ocean_1960-2100_v4.nc,HIRHAM5-monthly-ERA5_1975_2021.nc,0.00034000527708480014,1.677424133796508,0.6306050226456237,1.3077271982061003,,2.7219858,3.2588117,0.6897559,0.017504746,9.290259,42.081856,-329.33005,316.7715
547,493001.06611993443,0.00010053965111409555,MAR3.9_CNRM-CM6_ssp126_ocean_1960-2100_v4.nc,RACMO2.3p2_ERA5_FGRN055_1940_2023.nc,0.00024907083287107446,1.2675907216489068,0.649710743290154,1.1836145988158209,,2.8442895,3.300442,0.60579276,0.024740033,11.353678,40.642914,-207.93497,180.93802
548,320508.5431359523,0.00014553577324189585,MAR3.9_CNRM-ESM2_ssp585_ocean_1960-2100_v4.nc,RACMO2.3p2_ERA5_FGRN055_1940_2023.nc,0.0003244036250698131,1.509433476605011,0.6386882004439564,1.597682132516572,,2.8416748,3.3090425,0.5425051,0.021107752,8.388643,42.419384,-472.20438,296.96036
549,528171.8005969357,8.222540510867194e-05,MAR3.9_ACCESS1-3_rcp85_ocean_1960-2100_v4.nc,HIRHAM5-monthly-ERA5_1975_2021.nc,0.0003115158396595611,1.5566137950754653,0.37611389102232384,1.5417409282982597,,2.5919533,3.3178985,0.7510117,0.019089375,10.235858,44.48712,-315.47534,143.63617
550,705193.9837069276,0.00013195434592255066,MAR3.9_HadGEM2-ES_rcp85_ocean_1960-2100_v4.nc,RACMO2.3p2_ERA5_FGRN055_1940_2023.nc,0.00032574019337762016,1.3650716861489136,0.37651391888530744,1.4854161842923252,,2.5114188,3.3230371,0.8579619,0.018156443,10.778338,43.089237,-387.87796,407.65967
551,772740.9307971302,7.547528186844638e-05,MAR3.9_CNRM-ESM2_ssp585_ocean_1960-2100_v4.nc,MARv3.14-monthly-ERA5_1940_2023.nc,0.0002570877266485657,1.1536322405201072,0.46160829927827596,1.4938908647693574,,2.8459086,3.3691387,0.82232064,0.029095098,6.5715795,41.41413,-335.54733,773.6843
552,358915.8613650694,0.00014631586862788612,MAR3.9_CNRM-ESM2_ssp585_ocean_1960-2100_v4.nc,RACMO2.3p2_ERA5_FGRN055_1940_2023.nc,0.0003197092477956686,1.4175530127639213,0.4247843996098799,1.1245035349272505,,3.0034401,3.2857676,0.81725806,0.01982221,7.337766,44.559204,-189.54852,107.83683
553,776741.7273810753,0.00012076827958566887,MAR3.9_CNRM-CM6_ssp126_ocean_1960-2100_v4.nc,HIRHAM5-monthly-ERA5_1975_2021.nc,0.00032325977857301417,1.1336659912935485,0.41003067413259187,1.3554306437980386,,2.1389165,3.23794,0.76297164,0.02199027,5.018153,43.139187,-285.65872,474.7745
554,404863.5459099749,0.0001234862034816094,MAR3.9_HadGEM2-ES_rcp85_ocean_1960-2100_v4.nc,RACMO2.3p2_ERA5_FGRN055_1940_2023.nc,0.00034063466561840797,1.2170801689681532,0.763234735917776,1.1306405625539264,,2.7691216,3.2932496,0.77250576,0.020789875,5.207008,44.723488,-372.88727,303.80978
555,387778.33404784487,8.938330096608191e-05,MAR3.9_CSIRO-Mk3.6_rcp85_ocean_1960-2100_v4.nc,MARv3.14-monthly-ERA5_1940_2023.nc,0.0002947477119933506,1.5041462572292765,0.7435467248721195,1.4280033118441922,,2.835615,3.32899,0.62667674,0.021116458,6.4616113,40.488552,-413.2594,132.69499
556,739633.5218143472,8.441717338515719e-05,MAR3.9_HadGEM2-ES_rcp85_ocean_1960-2100_v4.nc,MARv3.14-monthly-ERA5_1940_2023.nc,0.0003494055006029688,1.4863968144972861,0.39779534183646353,1.529071940089262,,2.4597127,3.329677,0.6174648,0.018036842,7.613654,41.17022,-519.9866,330.6304
557,744950.3842095642,0.00013486995126493447,MAR3.9_HadGEM2-ES_rcp85_ocean_1960-2100_v4.nc,RACMO2.3p2_ERA5_FGRN055_1940_2023.nc,0.0003126210453735245,1.3209687163038855,0.623815278245478,1.1013547370721808,,2.2949715,3.3408856,0.88469136,0.014604327,7.899765,44.45719,-315.16052,171.28589
558,739319.671863555,0.00013543023134550284,MAR3.9_HadGEM2-ES_rcp85_ocean_1960-2100_v4.nc,HIRHAM5-monthly-ERA5_1975_2021.nc,0.000346861784770466,1.5866953224310603,0.802368318357356,1.7865840770481607,pism_g450m_frontretreat_calfin_1972_2019.nc,2.0641692,3.282713,0.5457338,0.0150658265,10.281628,44.22247,-456.6701,205.84784
559,764661.3354206802,0.00013039247673181256,MAR3.9_CSIRO-Mk3.6_rcp85_ocean_1960-2100_v4.nc,HIRHAM5-monthly-ERA5_1975_2021.nc,0.00035658992506571363,1.0174922707997955,0.42268968540880725,1.7163460145335963,pism_g450m_frontretreat_calfin_1972_2019.nc,2.9175012,3.3383582,0.744747,0.024030862,10.566783,44.61097,-201.00504,448.02136
560,415612.23508368334,0.00012060248641123308,MAR3.9_UKESM1-CM6_ssp585_ocean_1960-2100_v4.nc,HIRHAM5-monthly-ERA5_1975_2021.nc,0.00029734802629820473,1.21545119252688,0.7967354258948207,1.564709261344429,,2.6757977,3.3255093,0.7974358,0.01567345,6.6535897,44.773754,-393.1966,117.38877
561,704823.6533835828,0.00011521611999808299,MAR3.9_IPSL-CM5-MR_rcp85_ocean_1960-2100_v4.nc,HIRHAM5-monthly-ERA5_1975_2021.nc,0.00034979204145448863,1.4940590272864676,0.8435442028847828,1.748913305292629,,2.775405,3.301026,0.5618332,0.017128702,10.08008,42.390007,-445.50888,285.32156
562,377850.21008110925,8.45847248248341e-05,MAR3.9_CNRM-ESM2_ssp585_ocean_1960-2100_v4.nc,RACMO2.3p2_ERA5_FGRN055_1940_2023.nc,0.00024458962349023944,1.0430402948793338,0.6314465362316293,1.1709434644613934,,2.8835716,3.281791,0.8071002,0.017742677,10.235217,44.57442,-395.9543,182.88425
563,748576.88914014,0.00013438395884877923,MAR3.9_HadGEM2-ES_rcp85_ocean_1960-2100_v4.nc,MARv3.14-monthly-ERA5_1940_2023.nc,0.0003266018086922295,1.2390267824297991,0.4507117991799095,1.1657412812553232,pism_g450m_frontretreat_calfin_1972_2019.nc,2.6785905,3.2560518,0.67577916,0.019640531,5.397392,40.909653,-408.7048,235.41339
564,501323.95673204423,0.00014385295324359049,MAR3.9_CNRM-ESM2_ssp585_ocean_1960-2100_v4.nc,MARv3.14-monthly-ERA5_1940_2023.nc,0.0002925534038382104,1.069846341149885,0.7566741241351311,1.1144348590163577,,2.2138684,3.2714584,0.6918798,0.022111371,7.072121,41.355465,-367.03406,522.32776
565,464830.7988211585,0.00010226391885382742,MAR3.9_CNRM-ESM2_ssp585_ocean_1960-2100_v4.nc,HIRHAM5-monthly-ERA5_1975_2021.nc,0.00035971954162126356,1.005095660234051,0.5253797222228767,1.40930809572468,pism_g450m_frontretreat_calfin_1972_2019.nc,2.9937172,3.2841258,0.60917443,0.019129457,12.610918,42.17064,-227.32849,122.39257
566,307329.63350033516,0.00014543273076715932,MAR3.9_NorESM1-M_rcp85_ocean_1960-2100_v4.nc,MARv3.14-monthly-ERA5_1940_2023.nc,0.0003159616604071396,1.0003651324618072,0.3666487663875209,1.7919614339313505,,2.1807637,3.3067937,0.82242334,0.016257636,9.093911,42.624104,-196.18817,165.46214
567,454749.4055254429,0.00010782305228285464,MAR3.9_MIROC-ESM-CHEM_rcp26_ocean_1960-2100_v4.nc,RACMO2.3p2_ERA5_FGRN055_1940_2023.nc,0.0002997694746439153,1.0986958646446554,0.681780893838834,1.3637052513216636,,2.9442763,3.2623236,0.6590706,0.024666259,6.576728,44.281498,-403.48364,504.1672
568,433341.6061210252,0.00011260564370612483,MAR3.9_MIROC-ESM-CHEM_rcp26_ocean_1960-2100_v4.nc,HIRHAM5-monthly-ERA5_1975_2021.nc,0.000299986047385093,1.17896918116432,0.30595451251216393,1.324481493203338,,2.832509,3.2456653,0.69204825,0.017490074,6.095802,43.254154,-360.25806,53.473354
569,635442.8194831554,0.00014974859270329926,MAR3.9_IPSL-CM5-MR_rcp85_ocean_1960-2100_v4.nc,HIRHAM5-monthly-ERA5_1975_2021.nc,0.0003041262334628706,1.5148040668508642,0.4461438962767633,1.4713994156016041,,3.254466,3.3269248,0.6511414,0.015395907,7.4963827,43.813553,-419.12955,130.79146
570,688708.0471566543,0.0001072969515327796,MAR3.9_IPSL-CM5-MR_rcp85_ocean_1960-2100_v4.nc,MARv3.14-monthly-ERA5_1940_2023.nc,0.00025119234729492016,1.12232322191654,0.5819927027161207,1.2136578045429944,,2.669495,3.3854468,0.6827879,0.020103771,7.715899,42.301037,-336.55597,244.61133
571,672471.2966971282,0.00014352404051522373,MAR3.9_ACCESS1-3_rcp85_ocean_1960-2100_v4.nc,MARv3.14-monthly-ERA5_1940_2023.nc,0.0002856284685684321,1.2715618901547268,0.6237341207082526,1.6240016477175312,pism_g450m_frontretreat_calfin_1972_2019.nc,2.0680535,3.3050635,0.80274075,0.01588226,8.614278,41.13509,-374.82724,253.4573
572,502215.3121202659,9.773177178418469e-05,MAR3.9_CNRM-CM6_ssp126_ocean_1960-2100_v4.nc,RACMO2.3p2_ERA5_FGRN055_1940_2023.nc,0.00026575826031445207,1.6917134690305837,0.7133666955446618,1.1520356133783873,pism_g450m_frontretreat_calfin_1972_2019.nc,2.9290414,3.3020406,0.7702227,0.022779552,5.9908276,43.0744,-347.72934,335.1613
573,743861.5126573993,0.00012066509008251749,MAR3.9_CNRM-CM6_ssp126_ocean_1960-2100_v4.nc,MARv3.14-monthly-ERA5_1940_2023.nc,0.000348456034026501,1.121051682885455,0.46593437335531895,1.3788591247602815,,2.1718693,3.2768512,0.5798504,0.02254527,7.859017,43.90215,-323.43448,319.4304
574,791697.5389255921,8.068003224266922e-05,MAR3.9_UKESM1-CM6_ssp585_ocean_1960-2100_v4.nc,RACMO2.3p2_ERA5_FGRN055_1940_2023.nc,0.00030235954042446384,1.4405402065395927,0.8212203489828775,1.5831194260480523,,2.8834677,3.35218,0.632952,0.02474649,6.9913406,43.101986,-508.3378,493.96588
575,452218.3290865979,0.00011636790924256162,MAR3.9_CNRM-CM6_ssp126_ocean_1960-2100_v4.nc,RACMO2.3p2_ERA5_FGRN055_1940_2023.nc,0.00032635063660148034,1.49832418042214,0.7852679761918784,1.5013261289581945,,2.2075346,3.3193607,0.88052315,0.01587567,7.0401564,43.534954,-321.2137,202.6658
576,607557.8254399609,0.00010852749519497758,MAR3.9_IPSL-CM5-MR_rcp85_ocean_1960-2100_v4.nc,HIRHAM5-monthly-ERA5_1975_2021.nc,0.0003249077895616605,1.409326616844075,0.30056360828270834,1.4360937534066631,pism_g450m_frontretreat_calfin_1972_2019.nc,2.8241112,3.2973769,0.59397304,0.018154526,7.5638638,42.246017,-470.3704,317.0174
577,353664.45341728773,9.645302641523622e-05,MAR3.9_HadGEM2-ES_rcp85_ocean_1960-2100_v4.nc,HIRHAM5-monthly-ERA5_1975_2021.nc,0.00024763661483257735,1.160826441705783,0.5223974940669334,1.6671875244445826,pism_g450m_frontretreat_calfin_1972_2019.nc,2.2277308,3.3739338,0.8093751,0.012085491,10.358764,43.42065,-394.89694,150.35977
578,680157.6940306682,0.00012420928164078387,MAR3.9_MIROC-ESM-CHEM_rcp26_ocean_1960-2100_v4.nc,HIRHAM5-monthly-ERA5_1975_2021.nc,0.0003105378518750049,1.5832326049858136,0.4381469196327083,1.171834197516518,,2.8929048,3.2875855,0.6809055,0.02264692,6.4877205,44.72916,-384.41034,557.83594
579,646769.3996500603,0.0001189809998546399,MAR3.9_CNRM-CM6_ssp126_ocean_1960-2100_v4.nc,MARv3.14-monthly-ERA5_1940_2023.nc,0.00033476133142144025,1.5433004127976488,0.3565283189302283,1.2811791639244756,pism_g450m_frontretreat_calfin_1972_2019.nc,2.6527338,3.2935095,0.70410526,0.017366365,7.175484,41.386444,-351.09476,185.95924
580,321742.7518710485,0.00010477478690733516,MAR3.9_UKESM1-CM6_ssp585_ocean_1960-2100_v4.nc,RACMO2.3p2_ERA5_FGRN055_1940_2023.nc,0.00028387034940848807,1.3192883668621418,0.7797627181877109,1.6563593867597315,,3.1027563,3.3841958,0.89456207,0.02015466,7.9341936,43.720886,-218.44635,130.26712
581,404166.0733018629,8.496163478100668e-05,MAR3.9_IPSL-CM5-MR_rcp85_ocean_1960-2100_v4.nc,MARv3.14-monthly-ERA5_1940_2023.nc,0.00027685713370636253,1.5897745179411897,0.7681661742675235,1.4629417680335943,pism_g450m_frontretreat_calfin_1972_2019.nc,2.9683487,3.306499,0.7536874,0.021143395,8.296316,43.262493,-278.54193,136.27405
582,691916.4878323739,9.732714925107692e-05,MAR3.9_NorESM1-M_rcp85_ocean_1960-2100_v4.nc,HIRHAM5-monthly-ERA5_1975_2021.nc,0.0003558188750219802,1.6455368209321661,0.34976246312859305,1.1067647497697168,pism_g450m_frontretreat_calfin_1972_2019.nc,2.5704966,3.2664518,0.817923,0.021249143,5.480804,41.273384,-396.4383,356.57205
583,350267.54696986894,7.525416965026231e-05,MAR3.9_ACCESS1-3_rcp85_ocean_1960-2100_v4.nc,RACMO2.3p2_ERA5_FGRN055_1940_2023.nc,0.00029431025537288424,1.5405188434937336,0.8398033613459834,1.231435491179624,,2.0403392,3.2580073,0.66089165,0.018526094,5.49403,41.423584,-448.0042,238.14337
584,380737.3217844587,8.469389990316338e-05,MAR3.9_NorESM1-M_rcp85_ocean_1960-2100_v4.nc,HIRHAM5-monthly-ERA5_1975_2021.nc,0.00031553182940925696,1.5227342004049675,0.7582804791301289,1.388901976458828,,2.7363029,3.289935,0.67923427,0.02172059,10.055621,40.423725,-284.68344,294.80124
585,761249.6799843861,0.00012449764791199906,MAR3.9_ACCESS1-3_rcp85_ocean_1960-2100_v4.nc,RACMO2.3p2_ERA5_FGRN055_1940_2023.nc,0.00032648367864356097,1.3838555158480768,0.3265115852820819,1.4295775237898254,pism_g450m_frontretreat_calfin_1972_2019.nc,2.0443776,3.2607431,0.84550864,0.017254723,8.045912,43.01395,-272.5209,317.5765
586,520788.09289631114,0.00014729269545237615,MAR3.9_CNRM-CM6_ssp126_ocean_1960-2100_v4.nc,HIRHAM5-monthly-ERA5_1975_2021.nc,0.0002451474063458584,1.3547253093333116,0.5149852023788422,1.728383981455101,pism_g450m_frontretreat_calfin_1972_2019.nc,2.3658242,3.2276204,0.63434607,0.017201504,6.576999,44.239033,-428.85788,259.05005
587,604445.808401996,0.0001320640620319714,MAR3.9_ACCESS1-3_rcp85_ocean_1960-2100_v4.nc,HIRHAM5-monthly-ERA5_1975_2021.nc,0.00025093152830679694,1.1261696240103412,0.6989106488755907,1.2211731961544623,,2.3020217,3.3322072,0.7946199,0.017793864,6.5093446,42.01677,-370.17746,285.57578
588,323152.0100609667,0.00013059929323907494,MAR3.9_HadGEM2-ES_rcp85_ocean_1960-2100_v4.nc,RACMO2.3p2_ERA5_FGRN055_1940_2023.nc,0.00028151494148788116,1.036396617961494,0.7348516377653806,1.6604248614323203,,2.0620484,3.2931745,0.86298674,0.01366828,9.979809,43.042084,-344.33896,230.33266
589,674801.5110568545,0.00014498199337358345,MAR3.9_UKESM1-CM6_ssp585_ocean_1960-2100_v4.nc,MARv3.14-monthly-ERA5_1940_2023.nc,0.00024660986917990883,1.559819198010231,0.7503023159878681,1.6967717101051414,,2.7177558,3.2814648,0.6132326,0.016891593,9.400956,44.278072,-379.93106,247.47874
590,445378.6602113374,8.637617290804872e-05,MAR3.9_CSIRO-Mk3.6_rcp85_ocean_1960-2100_v4.nc,RACMO2.3p2_ERA5_FGRN055_1940_2023.nc,0.00024932428327613886,1.3603381057750557,0.7836913262663405,1.2466861087308914,,2.4082763,3.281552,0.7072527,0.014918182,6.578676,43.573647,-379.82935,129.39961
591,651622.1290993395,0.0001363205535378083,MAR3.9_CNRM-CM6_ssp126_ocean_1960-2100_v4.nc,HIRHAM5-monthly-ERA5_1975_2021.nc,0.0003335117070391796,1.389146171586126,0.4005092536167468,1.7414406896108843,pism_g450m_frontretreat_calfin_1972_2019.nc,2.393979,3.290047,0.7236243,0.018417593,6.9194474,43.484276,-370.3226,299.7627
592,625419.5250599978,0.00012182045955612676,MAR3.9_UKESM1-CM6_ssp585_ocean_1960-2100_v4.nc,HIRHAM5-monthly-ERA5_1975_2021.nc,0.0003309582393945697,1.6248744659641856,0.5693960628409294,1.117226188960896,pism_g450m_frontretreat_calfin_1972_2019.nc,2.5656831,3.3075306,0.75383323,0.019299008,7.8004203,41.04251,-436.18475,207.52534
593,573769.8682333394,9.010996736830753e-05,MAR3.9_UKESM1-CM6_ssp585_ocean_1960-2100_v4.nc,MARv3.14-monthly-ERA5_1940_2023.nc,0.0003547921949565492,1.4582323428019894,0.7528339596025898,1.2275886378767766,pism_g450m_frontretreat_calfin_1972_2019.nc,2.4285266,3.2973566,0.8151837,0.017780842,9.723596,44.932632,-235.54875,191.1896
594,547062.6071662464,0.00010743291028195825,MAR3.9_CNRM-CM6_ssp126_ocean_1960-2100_v4.nc,HIRHAM5-monthly-ERA5_1975_2021.nc,0.0002958752006337167,1.623932557045522,0.6446169821559699,1.4991954496310846,,2.912404,3.3204272,0.7156755,0.017950498,8.670112,40.844555,-362.77322,149.33969
595,453286.76042274194,8.338755614168924e-05,MAR3.9_CSIRO-Mk3.6_rcp85_ocean_1960-2100_v4.nc,MARv3.14-monthly-ERA5_1940_2023.nc,0.0002802999227318876,1.3057416959773207,0.3118530147683686,1.5477276911704572,pism_g450m_frontretreat_calfin_1972_2019.nc,2.669546,3.2857301,0.77575904,0.014687,7.0288186,43.129955,-440.51727,156.15897
596,475074.8651208255,7.730189873347325e-05,MAR3.9_HadGEM2-ES_rcp85_ocean_1960-2100_v4.nc,MARv3.14-monthly-ERA5_1940_2023.nc,0.00025966794157145746,1.6052894435934943,0.7977199988858819,1.232267934794009,,2.3304672,3.3169937,0.83871037,0.017830433,5.516953,42.85127,-417.76147,223.25104
597,597695.508573701,0.00013271238159423172,MAR3.9_MIROC-ESM-CHEM_rcp26_ocean_1960-2100_v4.nc,HIRHAM5-monthly-ERA5_1975_2021.nc,0.00033709230034033495,1.40445148252821,0.4435879843568855,1.6751932054242906,pism_g450m_frontretreat_calfin_1972_2019.nc,2.7086675,3.350706,0.69757247,0.017398663,7.050513,42.64127,-440.78964,358.50366
598,685392.6851686281,9.888689859066733e-05,MAR3.9_CNRM-ESM2_ssp585_ocean_1960-2100_v4.nc,RACMO2.3p2_ERA5_FGRN055_1940_2023.nc,0.0002547981913385062,1.6438501938150576,0.4920057997359343,1.5587081673476022,pism_g450m_frontretreat_calfin_1972_2019.nc,2.4679565,3.2775757,0.7441037,0.020535959,7.7383704,42.279327,-270.2073,157.53555
599,675507.142648197,8.30568956056768e-05,MAR3.9_HadGEM2-ES_rcp85_ocean_1960-2100_v4.nc,RACMO2.3p2_ERA5_FGRN055_1940_2023.nc,0.0002485900597280688,1.0793031345779904,0.45042439051744587,1.6516327837450349,pism_g450m_frontretreat_calfin_1972_2019.nc,2.6927514,3.3032277,0.8535724,0.02646424,4.9592824,43.625885,-138.9033,130.29701
600,594134.401343913,0.00011381629153061846,MAR3.9_IPSL-CM5-MR_rcp85_ocean_1960-2100_v4.nc,RACMO2.3p2_ERA5_FGRN055_1940_2023.nc,0.0003442360632960788,1.261729918692889,0.6006929556034256,1.4024358649120965,pism_g450m_frontretreat_calfin_1972_2019.nc,2.145636,3.27771,0.8160581,0.015711952,7.212744,42.48994,-376.25436,160.9654
601,304054.11893871543,0.00011125186052702321,MAR3.9_CNRM-ESM2_ssp585_ocean_1960-2100_v4.nc,MARv3.14-monthly-ERA5_1940_2023.nc,0.0003128530834435369,1.1146102225704495,0.3022268485355395,1.4882489336530804,pism_g450m_frontretreat_calfin_1972_2019.nc,2.611855,3.2599401,0.7563478,0.022376068,5.887193,40.429337,-347.2036,358.95694
602,667898.7262899798,0.00012926896828841194,MAR3.9_IPSL-CM5-MR_rcp85_ocean_1960-2100_v4.nc,RACMO2.3p2_ERA5_FGRN055_1940_2023.nc,0.0002691629257829585,1.3867185647760556,0.6760732931484275,1.6170882106277247,pism_g450m_frontretreat_calfin_1972_2019.nc,2.4470491,3.286618,0.6380896,0.014821667,5.5089693,43.294502,-498.1753,126.527016
603,716901.1721823334,7.801108646671796e-05,MAR3.9_CNRM-CM6_ssp126_ocean_1960-2100_v4.nc,RACMO2.3p2_ERA5_FGRN055_1940_2023.nc,0.00030297171334686863,1.0809015811725764,0.3644496198074822,1.5956415518395448,,2.7956738,3.3164961,0.8033822,0.019319901,8.884456,43.78262,-306.8833,448.36008
604,531996.7740520984,0.00011684642522042879,MAR3.9_CNRM-CM6_ssp126_ocean_1960-2100_v4.nc,RACMO2.3p2_ERA5_FGRN055_1940_2023.nc,0.00034927540729552664,1.4277788604368054,0.5377547120877803,1.5141465713921296,,1.908021,3.3138406,0.7601137,0.013084279,5.682655,43.652935,-413.80405,232.54514
605,455456.66219896363,0.00010401757690158884,MAR3.9_CNRM-CM6_ssp126_ocean_1960-2100_v4.nc,RACMO2.3p2_ERA5_FGRN055_1940_2023.nc,0.0002472235457400203,1.55769534834605,0.705516811726982,1.2687987571987867,pism_g450m_frontretreat_calfin_1972_2019.nc,2.4130418,3.2897894,0.7997359,0.017333971,6.39583,44.339657,-367.79443,166.07242
606,435930.64476472506,0.00012726110469177937,MAR3.9_MIROC-ESM-CHEM_rcp26_ocean_1960-2100_v4.nc,RACMO2.3p2_ERA5_FGRN055_1940_2023.nc,0.0003293864905542822,1.4528950240229461,0.31129558317553024,1.3030085980178117,pism_g450m_frontretreat_calfin_1972_2019.nc,2.685978,3.3506405,0.81430644,0.020070951,9.178896,41.756737,-628.41956,751.0018
607,406735.66701233486,8.02746663559515e-05,MAR3.9_NorESM1-M_rcp85_ocean_1960-2100_v4.nc,RACMO2.3p2_ERA5_FGRN055_1940_2023.nc,0.0002795471725186505,1.2438761649566241,0.6206661418200362,1.4116510887511957,,3.1064045,3.3426833,0.8018175,0.016789705,7.699129,44.013763,-394.07352,39.82565
608,468374.96275319456,8.016326451198795e-05,MAR3.9_UKESM1-CM6_ssp585_ocean_1960-2100_v4.nc,HIRHAM5-monthly-ERA5_1975_2021.nc,0.00035576607433861657,1.0737829400209113,0.5205444623716323,1.1152560769493396,pism_g450m_frontretreat_calfin_1972_2019.nc,2.9810276,3.3257284,0.82075757,0.020496914,8.232229,44.500427,-298.35318,455.96143
609,627799.7113055133,0.00013350453255946972,MAR3.9_CSIRO-Mk3.6_rcp85_ocean_1960-2100_v4.nc,HIRHAM5-monthly-ERA5_1975_2021.nc,0.0002594779206970787,1.4419413662245297,0.3806756626853891,1.41444989955274,,2.9958553,3.276242,0.63211334,0.023051808,10.534507,42.732628,-312.85376,236.5735
610,497951.2498595805,0.00013844768304139917,MAR3.9_ACCESS1-3_rcp85_ocean_1960-2100_v4.nc,HIRHAM5-monthly-ERA5_1975_2021.nc,0.00030140270987816313,1.3508697413694084,0.7740141642059208,1.4156963206172468,,2.5589616,3.3661895,0.7924121,0.014496291,7.843068,42.316357,-433.30725,150.63528
611,515547.0912228179,0.00013943188084112836,MAR3.9_CSIRO-Mk3.6_rcp85_ocean_1960-2100_v4.nc,RACMO2.3p2_ERA5_FGRN055_1940_2023.nc,0.00029086335878430016,1.0772046286785417,0.842070001121306,1.4916303766242758,,2.4591374,3.260308,0.6384165,0.01850595,12.342494,43.943935,-280.54248,409.0858
612,526092.618677668,9.814929113326748e-05,MAR3.9_ACCESS1-3_rcp85_ocean_1960-2100_v4.nc,HIRHAM5-monthly-ERA5_1975_2021.nc,0.00031196926896478485,1.4886313551836272,0.6568017508997237,1.3228351715050521,,2.0258245,3.2651296,0.8810527,0.015318163,6.456641,41.59773,-246.7021,51.77061
613,783890.1254617218,9.751212874678726e-05,MAR3.9_CSIRO-Mk3.6_rcp85_ocean_1960-2100_v4.nc,MARv3.14-monthly-ERA5_1940_2023.nc,0.0002564448296899973,1.2796199051294384,0.5081739544424775,1.2044868705911234,pism_g450m_frontretreat_calfin_1972_2019.nc,2.1664636,3.3094764,0.7994966,0.014436764,6.90805,42.200172,-493.75137,324.782
614,745781.9428357645,9.223416860461879e-05,MAR3.9_NorESM1-M_rcp85_ocean_1960-2100_v4.nc,RACMO2.3p2_ERA5_FGRN055_1940_2023.nc,0.00035277867189628795,1.4097584924296105,0.6249201749597912,1.254886728257765,,2.452227,3.3144085,0.88706285,0.017280925,7.082003,42.34521,-417.47858,274.51
615,324680.7878404808,0.00013731069988427372,MAR3.9_IPSL-CM5-MR_rcp85_ocean_1960-2100_v4.nc,MARv3.14-monthly-ERA5_1940_2023.nc,0.0003087377047947047,1.1053501390748248,0.465373173922679,1.1363372634144282,pism_g450m_frontretreat_calfin_1972_2019.nc,2.6424863,3.2775855,0.757749,0.022326717,8.066827,41.693905,-419.86658,400.56027
616,576752.5904241118,7.994226628067621e-05,MAR3.9_CNRM-ESM2_ssp585_ocean_1960-2100_v4.nc,MARv3.14-monthly-ERA5_1940_2023.nc,0.00027000700817773145,1.339032922503766,0.6392379413716198,1.7636824117743375,pism_g450m_frontretreat_calfin_1972_2019.nc,3.169825,3.282352,0.56974345,0.02472933,5.7109647,43.988533,-312.75073,120.70199
617,460051.4667723486,0.0001308982805707692,MAR3.9_IPSL-CM5-MR_rcp85_ocean_1960-2100_v4.nc,HIRHAM5-monthly-ERA5_1975_2021.nc,0.0002462943236335135,1.0874485492352532,0.7871568202065895,1.7227815140945997,pism_g450m_frontretreat_calfin_1972_2019.nc,2.265834,3.3262124,0.77362233,0.013081209,8.048975,43.81114,-450.64215,275.889
618,524611.9127472178,0.00010470361754341955,MAR3.9_HadGEM2-ES_rcp85_ocean_1960-2100_v4.nc,MARv3.14-monthly-ERA5_1940_2023.nc,0.00024015420674661887,1.2092584688972756,0.6026813569034088,1.5252328866112839,,3.0050232,3.3231273,0.6654154,0.022774613,8.505555,42.457047,-227.89804,211.58084
619,715037.3386406214,0.00010388718060407848,MAR3.9_CNRM-ESM2_ssp585_ocean_1960-2100_v4.nc,HIRHAM5-monthly-ERA5_1975_2021.nc,0.0002911300156259818,1.4137422359341063,0.7513667960477979,1.3829174778900848,pism_g450m_frontretreat_calfin_1972_2019.nc,2.6982648,3.315926,0.73234564,0.024061175,12.246843,42.20926,-446.45242,491.4573
620,355132.4726679822,0.00013050236251599656,MAR3.9_UKESM1-CM6_ssp585_ocean_1960-2100_v4.nc,MARv3.14-monthly-ERA5_1940_2023.nc,0.00028180855631002917,1.4322578549541136,0.3431934885451937,1.267497454542329,,2.9481556,3.3237143,0.75898355,0.018863553,9.007122,42.340904,-275.42432,126.93799
621,638304.5378333579,0.00013868872906846606,MAR3.9_CSIRO-Mk3.6_rcp85_ocean_1960-2100_v4.nc,HIRHAM5-monthly-ERA5_1975_2021.nc,0.0003383853581629834,1.550120277316044,0.6294770325835608,1.5820499141166198,pism_g450m_frontretreat_calfin_1972_2019.nc,2.4579725,3.3035653,0.53821605,0.016666682,5.669735,43.280533,-629.0653,308.52234
622,636517.8816759323,9.914233740887475e-05,MAR3.9_HadGEM2-ES_rcp85_ocean_1960-2100_v4.nc,MARv3.14-monthly-ERA5_1940_2023.nc,0.00027869334986278116,1.467853867616373,0.836449791472694,1.2086636788359442,pism_g450m_frontretreat_calfin_1972_2019.nc,2.434594,3.2670417,0.6322863,0.017754076,7.571358,42.13234,-339.63348,241.70856
623,548590.0030723158,0.00012340865845001465,MAR3.9_HadGEM2-ES_rcp85_ocean_1960-2100_v4.nc,MARv3.14-monthly-ERA5_1940_2023.nc,0.00030319909364095565,1.6125008389196631,0.34833568870116605,1.7470839359942942,,2.4534864,3.2879817,0.8288525,0.019126058,5.2908626,42.974102,-289.3376,199.18513
624,781355.6144552361,0.00011572110834083608,MAR3.9_CSIRO-Mk3.6_rcp85_ocean_1960-2100_v4.nc,RACMO2.3p2_ERA5_FGRN055_1940_2023.nc,0.00030525795810206716,1.0781880861122606,0.6968615228027581,1.563145484022887,,2.8263416,3.3221378,0.85376734,0.021810733,9.31952,42.60128,-266.76285,251.70804
625,736186.9845730801,8.774001746695782e-05,MAR3.9_IPSL-CM5-MR_rcp85_ocean_1960-2100_v4.nc,RACMO2.3p2_ERA5_FGRN055_1940_2023.nc,0.0003436644380131787,1.2164148027959105,0.6628950471055927,1.4701283549997892,,2.1908045,3.3155718,0.7906647,0.018400593,6.221178,42.145294,-463.65472,497.46457
626,386590.0176273638,7.777901045604346e-05,MAR3.9_CSIRO-Mk3.6_rcp85_ocean_1960-2100_v4.nc,MARv3.14-monthly-ERA5_1940_2023.nc,0.0002903761055299971,1.2275213504372269,0.4864639110935888,1.3883884397099582,,2.6983,3.335333,0.68950343,0.019919313,7.1798124,40.194656,-429.40524,256.47873
627,529157.0936210692,0.00012409227612927867,MAR3.9_HadGEM2-ES_rcp85_ocean_1960-2100_v4.nc,MARv3.14-monthly-ERA5_1940_2023.nc,0.00024060023693433356,1.2516691557674302,0.5931925334861119,1.7010600321784772,,2.5283594,3.3082817,0.6263116,0.018056544,7.822027,44.59503,-389.7496,228.9125
628,632004.4428043419,0.00013081601579721801,MAR3.9_IPSL-CM5-MR_rcp85_ocean_1960-2100_v4.nc,MARv3.14-monthly-ERA5_1940_2023.nc,0.00032468917815591544,1.0674387618112693,0.7730309211853408,1.482546400433228,,2.363149,3.277355,0.8108049,0.01887698,6.065936,43.80555,-375.5077,306.56158
629,696959.7184148456,0.00010408094802134783,MAR3.9_CNRM-CM6_ssp126_ocean_1960-2100_v4.nc,RACMO2.3p2_ERA5_FGRN055_1940_2023.nc,0.00034656537988963295,1.2956703839577304,0.6792665456924467,1.7031188370124237,pism_g450m_frontretreat_calfin_1972_2019.nc,2.3079658,3.2122936,0.6444978,0.022500739,7.3645177,42.333645,-317.79205,413.1799
630,372487.74862718896,0.0001109880154979829,MAR3.9_NorESM1-M_rcp85_ocean_1960-2100_v4.nc,RACMO2.3p2_ERA5_FGRN055_1940_2023.nc,0.00034892793094706424,1.414746371065573,0.3714174943963066,1.7064097357233103,pism_g450m_frontretreat_calfin_1972_2019.nc,3.1280515,3.3126137,0.83210754,0.020726344,9.490787,42.018353,-157.15971,69.84188
631,636236.5280259529,0.0001266180004546832,MAR3.9_IPSL-CM5-MR_rcp85_ocean_1960-2100_v4.nc,HIRHAM5-monthly-ERA5_1975_2021.nc,0.00029857350902146956,1.6318656501316842,0.7146831962720361,1.2984276807853437,pism_g450m_frontretreat_calfin_1972_2019.nc,2.2231994,3.3495688,0.89465797,0.015692012,9.560242,44.629726,-181.02448,128.63033
632,348973.02326381096,0.00014759823199393104,MAR3.9_UKESM1-CM6_ssp585_ocean_1960-2100_v4.nc,HIRHAM5-monthly-ERA5_1975_2021.nc,0.00034784134407943047,1.214443505510494,0.8264615953774845,1.4261709012759485,,1.8515055,3.273163,0.61998045,0.015421067,6.169901,44.5582,-470.0193,218.94606
633,450043.80795182957,0.0001105503694183921,MAR3.9_CNRM-CM6_ssp126_ocean_1960-2100_v4.nc,HIRHAM5-monthly-ERA5_1975_2021.nc,0.0002736544815605435,1.3241598598501563,0.36165963293213965,1.266071689033736,pism_g450m_frontretreat_calfin_1972_2019.nc,2.9547791,3.3106325,0.74619824,0.017711878,7.7557054,43.832386,-315.59763,206.46204
634,678107.2791917167,0.00011587795020384852,MAR3.9_UKESM1-CM6_ssp585_ocean_1960-2100_v4.nc,HIRHAM5-monthly-ERA5_1975_2021.nc,0.0003113711737537001,1.19205027118853,0.4793280770175461,1.1863544485277207,,2.2322404,3.3110297,0.74537987,0.019582773,7.5700016,40.885105,-330.43344,245.97345
635,441214.2723896857,7.745498629763933e-05,MAR3.9_CSIRO-Mk3.6_rcp85_ocean_1960-2100_v4.nc,RACMO2.3p2_ERA5_FGRN055_1940_2023.nc,0.00033644546737064544,1.318109808924323,0.3621815228483009,1.4041979941103098,pism_g450m_frontretreat_calfin_1972_2019.nc,2.119968,3.320109,0.8219085,0.0165476,8.505442,42.683277,-337.0832,216.8383
636,530692.5602057258,0.00011342285968052784,MAR3.9_NorESM1-M_rcp85_ocean_1960-2100_v4.nc,RACMO2.3p2_ERA5_FGRN055_1940_2023.nc,0.00028901042387034635,1.272899550885251,0.7922543536699056,1.2164351270238174,pism_g450m_frontretreat_calfin_1972_2019.nc,2.7238193,3.2768557,0.71829456,0.020144239,5.3580055,44.23059,-435.9735,179.25607
637,349658.081848495,0.00013908810670466794,MAR3.9_CNRM-ESM2_ssp585_ocean_1960-2100_v4.nc,MARv3.14-monthly-ERA5_1940_2023.nc,0.00035625868199418425,1.3130067823997558,0.4449839597135926,1.2537216005652052,pism_g450m_frontretreat_calfin_1972_2019.nc,2.914503,3.3205116,0.75543064,0.015604496,12.333545,42.27916,-277.2444,277.89163
638,767879.7188747614,0.00014948978367334415,MAR3.9_CNRM-ESM2_ssp585_ocean_1960-2100_v4.nc,MARv3.14-monthly-ERA5_1940_2023.nc,0.0003454142414669049,1.6293570624513647,0.406819757187473,1.700002209790414,,1.8065752,3.2935853,0.7282477,0.0109689105,7.4176426,43.37943,-356.4559,105.50329
639,596662.9771161738,0.00014051287114676586,MAR3.9_CNRM-CM6_ssp126_ocean_1960-2100_v4.nc,MARv3.14-monthly-ERA5_1940_2023.nc,0.00027976959822961143,1.226253471929002,0.41362741586088514,1.2581969080759319,pism_g450m_frontretreat_calfin_1972_2019.nc,3.2437696,3.2734466,0.75366294,0.02018768,6.6343274,44.104427,-261.65024,250.33568
640,771766.4883610548,7.79942074046837e-05,MAR3.9_CSIRO-Mk3.6_rcp85_ocean_1960-2100_v4.nc,HIRHAM5-monthly-ERA5_1975_2021.nc,0.0003182523782535471,1.0231467222290975,0.698471800523093,1.749359879191419,pism_g450m_frontretreat_calfin_1972_2019.nc,2.7152588,3.274675,0.64006597,0.014291149,5.266598,42.40168,-493.97083,98.67468
641,390805.455691816,8.803219647742518e-05,MAR3.9_UKESM1-CM6_ssp585_ocean_1960-2100_v4.nc,RACMO2.3p2_ERA5_FGRN055_1940_2023.nc,0.0003183236331524438,1.4605903257491757,0.5844274946234935,1.3011892132679437,pism_g450m_frontretreat_calfin_1972_2019.nc,2.2052655,3.3004606,0.59009504,0.015079526,12.231249,43.142017,-465.73904,309.2015
642,414669.39240138745,0.00010905521116972523,MAR3.9_IPSL-CM5-MR_rcp85_ocean_1960-2100_v4.nc,RACMO2.3p2_ERA5_FGRN055_1940_2023.nc,0.0002502557476193732,1.0330276458000804,0.6475629064335824,1.7814375888452019,pism_g450m_frontretreat_calfin_1972_2019.nc,2.7561924,3.2466073,0.71987885,0.022454817,6.373722,40.69651,-243.54291,154.20546
643,402727.63741054706,0.00013449450314698106,MAR3.9_CNRM-CM6_ssp126_ocean_1960-2100_v4.nc,RACMO2.3p2_ERA5_FGRN055_1940_2023.nc,0.00035859439242208956,1.3138490854598013,0.6148471476053715,1.1110780092417474,pism_g450m_frontretreat_calfin_1972_2019.nc,2.6251671,3.3681996,0.7855806,0.01698774,9.169843,43.346558,-276.23126,191.75104
644,446384.7558072195,9.501058709440888e-05,MAR3.9_MIROC-ESM-CHEM_rcp26_ocean_1960-2100_v4.nc,MARv3.14-monthly-ERA5_1940_2023.nc,0.00024287171520980409,1.0908659266837641,0.5005991350235945,1.4839886167360576,,2.604044,3.3409042,0.7480371,0.017944967,10.807195,42.69218,-336.5799,71.57127
645,772303.2608106326,8.895856668170492e-05,MAR3.9_CSIRO-Mk3.6_rcp85_ocean_1960-2100_v4.nc,RACMO2.3p2_ERA5_FGRN055_1940_2023.nc,0.00034444029212193586,1.4543231525711482,0.7188473498696633,1.3620682112525313,,2.6654184,3.3293407,0.7889639,0.016674379,6.402571,41.56346,-382.2846,204.44186
646,726671.2830433853,0.000122777790677296,MAR3.9_NorESM1-M_rcp85_ocean_1960-2100_v4.nc,MARv3.14-monthly-ERA5_1940_2023.nc,0.00032129594189718273,1.1931919992027853,0.8039321169276203,1.7263945801523664,pism_g450m_frontretreat_calfin_1972_2019.nc,2.3816729,3.3076305,0.7281713,0.016773695,6.8896823,43.773144,-413.22772,276.3181
647,379146.4402499674,0.00011032346129951736,MAR3.9_MIROC-ESM-CHEM_rcp26_ocean_1960-2100_v4.nc,RACMO2.3p2_ERA5_FGRN055_1940_2023.nc,0.0002529271566565297,1.139430538713528,0.8076811860365161,1.4894804192631137,,3.0878892,3.3092093,0.80212754,0.022316944,5.538259,44.37516,-381.71686,230.62541
648,603834.815634818,0.00013819818689013528,MAR3.9_CNRM-ESM2_ssp585_ocean_1960-2100_v4.nc,RACMO2.3p2_ERA5_FGRN055_1940_2023.nc,0.00029511448054387804,1.4626702829252227,0.849874040953744,1.7614575822888303,,2.7559433,3.3179078,0.69910336,0.017306594,9.011563,41.438263,-275.22128,80.30706
649,428798.48682108114,0.00011925288724253091,MAR3.9_CNRM-ESM2_ssp585_ocean_1960-2100_v4.nc,MARv3.14-monthly-ERA5_1940_2023.nc,0.00027354940655149797,1.4500692020764365,0.7327123847085162,1.1389710393050902,,2.257236,3.1455503,0.6975739,0.015612784,5.415557,41.26278,-392.86234,73.170525
650,335859.05116799264,8.099837015314808e-05,MAR3.9_NorESM1-M_rcp85_ocean_1960-2100_v4.nc,MARv3.14-monthly-ERA5_1940_2023.nc,0.0002480992323642151,1.4691501147815416,0.8381137797819931,1.1513173410949187,,2.7115378,3.3410342,0.80425245,0.0256872,7.2571263,43.986713,-186.00949,384.4106
651,676941.5331784431,0.00011655250001088688,MAR3.9_CSIRO-Mk3.6_rcp85_ocean_1960-2100_v4.nc,HIRHAM5-monthly-ERA5_1975_2021.nc,0.0003352211063177328,1.0398722910808282,0.692469064616986,1.7518833701298928,,2.4289718,3.2763014,0.7306466,0.017768342,10.600042,42.66129,-241.32867,98.92844
652,602862.1203888061,8.523481531614147e-05,MAR3.9_CNRM-CM6_ssp126_ocean_1960-2100_v4.nc,MARv3.14-monthly-ERA5_1940_2023.nc,0.00026415584059437267,1.6311070227485587,0.5178539672951251,1.4860179473742674,pism_g450m_frontretreat_calfin_1972_2019.nc,2.9529486,3.2807813,0.73654634,0.020768324,8.766664,41.91925,-360.2299,253.21605
653,484189.10464672826,0.00010588117932031588,MAR3.9_NorESM1-M_rcp85_ocean_1960-2100_v4.nc,RACMO2.3p2_ERA5_FGRN055_1940_2023.nc,0.0003084287244822335,1.6336573660795017,0.6945036123854238,1.6232280216908896,pism_g450m_frontretreat_calfin_1972_2019.nc,2.209343,3.3668392,0.74086744,0.017215446,6.6762757,42.176067,-445.0048,172.84753
654,589626.944824023,9.693654745848601e-05,MAR3.9_CNRM-ESM2_ssp585_ocean_1960-2100_v4.nc,RACMO2.3p2_ERA5_FGRN055_1940_2023.nc,0.0002510199638385548,1.5181871642195572,0.7247713424387769,1.196252858274221,,2.9569619,3.3330421,0.7546751,0.017911915,10.096848,43.806793,-440.27847,339.62982
655,544770.566731687,0.00010754665855175095,MAR3.9_IPSL-CM5-MR_rcp85_ocean_1960-2100_v4.nc,MARv3.14-monthly-ERA5_1940_2023.nc,0.00030006672028229993,1.0685112415994094,0.6505977151973474,1.365712868459827,pism_g450m_frontretreat_calfin_1972_2019.nc,2.6768897,3.3275867,0.7409392,0.0280102,7.974327,44.16235,-272.83652,730.2896
656,534869.4110333445,0.00013471261182517374,MAR3.9_CNRM-CM6_ssp126_ocean_1960-2100_v4.nc,MARv3.14-monthly-ERA5_1940_2023.nc,0.0002829395003651089,1.447257519116956,0.5829669738045284,1.6906422032013169,,2.3450215,3.3319612,0.80378693,0.017219236,5.588913,43.763027,-421.79892,244.4915
657,560468.222207487,0.00010650975882184276,MAR3.9_NorESM1-M_rcp85_ocean_1960-2100_v4.nc,HIRHAM5-monthly-ERA5_1975_2021.nc,0.0003038688044643989,1.476723602670623,0.4801119475299476,1.7727141988665536,pism_g450m_frontretreat_calfin_1972_2019.nc,2.9752426,3.373668,0.8766159,0.018299753,7.4738827,43.878105,-340.05685,210.54662
658,647083.2142718087,0.00010438737704613257,MAR3.9_CNRM-ESM2_ssp585_ocean_1960-2100_v4.nc,MARv3.14-monthly-ERA5_1940_2023.nc,0.0003195178762430765,1.2452848807557015,0.41788732389423844,1.5449734926988,,2.8467917,3.3028893,0.63064307,0.019567108,9.142017,43.45255,-350.1709,277.16483
659,643142.5171151254,0.00014252033621695097,MAR3.9_MIROC-ESM-CHEM_rcp26_ocean_1960-2100_v4.nc,RACMO2.3p2_ERA5_FGRN055_1940_2023.nc,0.00032093122945711037,1.0492419435860678,0.43540039131365005,1.7291552571860456,pism_g450m_frontretreat_calfin_1972_2019.nc,3.036836,3.26949,0.75715154,0.02307346,5.061281,42.523308,-301.81088,318.7183
660,522683.36918483756,9.546274262973649e-05,MAR3.9_MIROC-ESM-CHEM_rcp26_ocean_1960-2100_v4.nc,RACMO2.3p2_ERA5_FGRN055_1940_2023.nc,0.0003315595327476954,1.3109609120382273,0.4945470278995622,1.4230097136581548,,2.3968353,3.3408444,0.83870316,0.01817777,8.492073,41.363327,-320.10968,228.87538
661,638119.5972942073,8.289748449245438e-05,MAR3.9_CSIRO-Mk3.6_rcp85_ocean_1960-2100_v4.nc,RACMO2.3p2_ERA5_FGRN055_1940_2023.nc,0.00024342018324895323,1.684637539378937,0.4622571283601186,1.6699528381994297,,2.6477535,3.3372998,0.83251727,0.01416201,5.4537416,44.384342,-517.16205,222.7845
662,328823.98106636305,9.37295745363166e-05,MAR3.9_CSIRO-Mk3.6_rcp85_ocean_1960-2100_v4.nc,HIRHAM5-monthly-ERA5_1975_2021.nc,0.0002500419285827521,1.242012245606503,0.738851476603374,1.2622032795963651,pism_g450m_frontretreat_calfin_1972_2019.nc,2.3680584,3.351942,0.89195967,0.015567906,8.9430485,43.46626,-356.46024,184.44951
663,448220.6966941431,0.0001314887180289566,MAR3.9_HadGEM2-ES_rcp85_ocean_1960-2100_v4.nc,MARv3.14-monthly-ERA5_1940_2023.nc,0.0003356840213338701,1.6073575702522023,0.8201118113557551,1.6865930526119834,pism_g450m_frontretreat_calfin_1972_2019.nc,2.0846603,3.2556307,0.8088666,0.01605976,6.4991574,42.64108,-423.38464,275.43228
664,322476.5811340984,0.0001371384949347479,MAR3.9_CNRM-CM6_ssp126_ocean_1960-2100_v4.nc,MARv3.14-monthly-ERA5_1940_2023.nc,0.0003292153946859482,1.0391270195960927,0.5904534906436751,1.4050561852344778,pism_g450m_frontretreat_calfin_1972_2019.nc,2.455786,3.335609,0.83997625,0.01727196,9.973526,42.584682,-321.1823,249.9317
665,545308.3639908598,0.00010573632937092193,MAR3.9_CNRM-ESM2_ssp585_ocean_1960-2100_v4.nc,RACMO2.3p2_ERA5_FGRN055_1940_2023.nc,0.0003483280978782938,1.1885574645503045,0.33201557616376154,1.5217580989155712,,2.8370452,3.3405554,0.8408202,0.020630041,6.9913263,43.169804,-282.86066,219.2213
666,678856.3041020847,8.875448657630901e-05,MAR3.9_CNRM-CM6_ssp126_ocean_1960-2100_v4.nc,HIRHAM5-monthly-ERA5_1975_2021.nc,0.00033018117404670676,1.6207296666344044,0.3492639523292827,1.6434704699894023,pism_g450m_frontretreat_calfin_1972_2019.nc,2.5384746,3.262798,0.6737001,0.01944098,9.7365465,42.62347,-289.52393,169.16473
667,775177.398045609,0.00011546917659581351,MAR3.9_HadGEM2-ES_rcp85_ocean_1960-2100_v4.nc,MARv3.14-monthly-ERA5_1940_2023.nc,0.0002860142464040627,1.0346463648553674,0.35601833471772915,1.7354439800036179,pism_g450m_frontretreat_calfin_1972_2019.nc,2.5232334,3.2842376,0.81230974,0.019385818,8.4026165,41.076458,-191.8773,144.03302
668,425290.87135481427,0.00010822893847918982,MAR3.9_CSIRO-Mk3.6_rcp85_ocean_1960-2100_v4.nc,MARv3.14-monthly-ERA5_1940_2023.nc,0.0002456418256856615,1.3384125908079851,0.4119434074324886,1.4984666449247594,pism_g450m_frontretreat_calfin_1972_2019.nc,2.7908382,3.3084445,0.83318317,0.019799689,6.669893,44.49057,-377.25568,219.48482
669,665943.2291788054,0.0001103848319116072,MAR3.9_HadGEM2-ES_rcp85_ocean_1960-2100_v4.nc,MARv3.14-monthly-ERA5_1940_2023.nc,0.00029300201777883054,1.2590425061393102,0.5036138791351862,1.149353159339475,pism_g450m_frontretreat_calfin_1972_2019.nc,2.510245,3.3111963,0.8824771,0.0148195075,6.6170106,44.222946,-299.34494,109.257614
670,700938.619137115,0.000119706870214635,MAR3.9_CNRM-ESM2_ssp585_ocean_1960-2100_v4.nc,MARv3.14-monthly-ERA5_1940_2023.nc,0.0003423976982834931,1.055204980861417,0.7393627367458694,1.6873121876842703,pism_g450m_frontretreat_calfin_1972_2019.nc,2.281072,3.2461746,0.6068481,0.015273895,6.6070547,44.438705,-454.9055,273.5042
671,514909.79588217643,9.538407263804678e-05,MAR3.9_IPSL-CM5-MR_rcp85_ocean_1960-2100_v4.nc,HIRHAM5-monthly-ERA5_1975_2021.nc,0.00034219036895490014,1.522336826159368,0.4307788136655655,1.4218632939366738,,2.1194406,3.3384197,0.7824195,0.019072017,5.6976967,43.881477,-423.33685,224.34334
672,730486.3832626771,9.614451915884213e-05,MAR3.9_MIROC-ESM-CHEM_rcp26_ocean_1960-2100_v4.nc,RACMO2.3p2_ERA5_FGRN055_1940_2023.nc,0.0003056176762748816,1.6948566801694993,0.8339528974265067,1.5623140500537143,,2.3301084,3.3470805,0.6979035,0.017511064,7.6387973,44.260815,-560.02496,228.14203
673,782237.161859489,0.00010196623926844783,MAR3.9_UKESM1-CM6_ssp585_ocean_1960-2100_v4.nc,RACMO2.3p2_ERA5_FGRN055_1940_2023.nc,0.00027082559367628954,1.2637907486540212,0.5235868855759338,1.4304233436726816,pism_g450m_frontretreat_calfin_1972_2019.nc,2.268315,3.313659,0.72332853,0.018684028,6.0029783,40.97857,-463.47824,349.67294
674,416739.0330004527,9.127865860581611e-05,MAR3.9_CNRM-CM6_ssp126_ocean_1960-2100_v4.nc,MARv3.14-monthly-ERA5_1940_2023.nc,0.00024381743155413345,1.2134419827603038,0.8283161121492859,1.7741463094324708,,2.6606617,3.3173912,0.73478276,0.019868573,5.250335,42.239735,-418.59717,299.06754
675,337274.10446418426,9.653217614932186e-05,MAR3.9_CNRM-CM6_ssp126_ocean_1960-2100_v4.nc,HIRHAM5-monthly-ERA5_1975_2021.nc,0.0002482158601033011,1.2613839470624604,0.43979852610583436,1.5299937821469853,,2.7254288,3.2891407,0.6402437,0.018682793,6.9854198,43.598125,-400.60098,287.4115
676,728068.3631792266,0.00013514101087034203,MAR3.9_IPSL-CM5-MR_rcp85_ocean_1960-2100_v4.nc,MARv3.14-monthly-ERA5_1940_2023.nc,0.0002743107546703508,1.422379081554238,0.4543043335117079,1.355982995210437,,2.1998436,3.3151016,0.62760526,0.01740347,11.826152,42.35398,-428.7567,352.7835
677,493830.3262212031,7.564628336730476e-05,MAR3.9_CNRM-CM6_ssp126_ocean_1960-2100_v4.nc,MARv3.14-monthly-ERA5_1940_2023.nc,0.0003267807471958781,1.3716898052527597,0.8102386643251636,1.469728225039184,pism_g450m_frontretreat_calfin_1972_2019.nc,3.1297393,3.3692157,0.6959191,0.022407308,11.560823,41.67646,-250.38966,329.5659
678,563496.7731847706,0.00011645267956922304,MAR3.9_ACCESS1-3_rcp85_ocean_1960-2100_v4.nc,MARv3.14-monthly-ERA5_1940_2023.nc,0.00031311482705958084,1.150967380175414,0.7900361193927448,1.1256927091093827,pism_g450m_frontretreat_calfin_1972_2019.nc,3.0545962,3.3290243,0.6618431,0.01937721,6.0321403,43.300594,-446.65646,288.2285
679,724819.9502182505,9.39285964434681e-05,MAR3.9_MIROC-ESM-CHEM_rcp26_ocean_1960-2100_v4.nc,RACMO2.3p2_ERA5_FGRN055_1940_2023.nc,0.000350994034345429,1.380424330324541,0.3402981515484038,1.1019055747736621,,2.4177732,3.3295429,0.6485895,0.019844133,12.878985,43.26773,-312.44724,168.33195
680,716543.2027167447,0.0001491409683584925,MAR3.9_NorESM1-M_rcp85_ocean_1960-2100_v4.nc,RACMO2.3p2_ERA5_FGRN055_1940_2023.nc,0.0002535556346745987,1.6387104918018804,0.7165219690806676,1.2155928236707754,pism_g450m_frontretreat_calfin_1972_2019.nc,2.3294713,3.321088,0.7002154,0.013915644,10.196308,41.721664,-399.4294,239.46738
681,426509.3678572012,0.00010101108382956895,MAR3.9_CNRM-CM6_ssp126_ocean_1960-2100_v4.nc,RACMO2.3p2_ERA5_FGRN055_1940_2023.nc,0.0003595554843339744,1.5876173201381583,0.7549598572270462,1.561872428802493,,2.26599,3.3879938,0.87474537,0.020930946,12.264785,41.735558,-306.45584,446.95212
682,376633.1602063356,9.243519259227686e-05,MAR3.9_HadGEM2-ES_rcp85_ocean_1960-2100_v4.nc,HIRHAM5-monthly-ERA5_1975_2021.nc,0.00028823648771847236,1.1872630174807117,0.3209293916647821,1.2288983975624452,pism_g450m_frontretreat_calfin_1972_2019.nc,2.6633608,3.2842727,0.6780583,0.015879843,7.2065797,43.952034,-388.28418,175.94055
683,539540.887937885,9.140292911300195e-05,MAR3.9_ACCESS1-3_rcp85_ocean_1960-2100_v4.nc,HIRHAM5-monthly-ERA5_1975_2021.nc,0.00026813582725506845,1.0529726149052019,0.5720487176025774,1.5730807435344356,pism_g450m_frontretreat_calfin_1972_2019.nc,1.9632185,3.230617,0.65616804,0.01631533,6.6035194,44.216972,-379.17908,362.1946
684,608838.0721587363,0.0001369638853239954,MAR3.9_CNRM-CM6_ssp126_ocean_1960-2100_v4.nc,HIRHAM5-monthly-ERA5_1975_2021.nc,0.00029674572328555125,1.4376204103143777,0.6192527891181472,1.5660477228483205,pism_g450m_frontretreat_calfin_1972_2019.nc,2.450532,3.2769408,0.74948907,0.016445791,5.6770554,42.968193,-402.47903,237.07207
685,361381.01561350597,9.7098304700642e-05,MAR3.9_UKESM1-CM6_ssp585_ocean_1960-2100_v4.nc,HIRHAM5-monthly-ERA5_1975_2021.nc,0.0003173971607623019,1.6198942276940538,0.31538189312919535,1.4964488416176456,pism_g450m_frontretreat_calfin_1972_2019.nc,2.206607,3.3645334,0.83554804,0.016642889,9.438779,42.833126,-438.11362,368.13608
686,795083.9383821888,0.00012292037450274205,MAR3.9_HadGEM2-ES_rcp85_ocean_1960-2100_v4.nc,HIRHAM5-monthly-ERA5_1975_2021.nc,0.00024034747705788706,1.1835181756685305,0.580533937572664,1.5054520933479187,pism_g450m_frontretreat_calfin_1972_2019.nc,2.1945975,3.3301733,0.7679853,0.01606355,7.9460864,42.53038,-482.18283,128.7457
687,535690.0961536879,9.48913150319424e-05,MAR3.9_IPSL-CM5-MR_rcp85_ocean_1960-2100_v4.nc,MARv3.14-monthly-ERA5_1940_2023.nc,0.0002615987206157919,1.438962588878725,0.5597765921159903,1.6394296349971782,,2.520532,3.2314134,0.7128892,0.014701296,8.035112,44.031006,-298.22086,41.770023
688,477170.0844948748,9.037205562723106e-05,MAR3.9_NorESM1-M_rcp85_ocean_1960-2100_v4.nc,HIRHAM5-monthly-ERA5_1975_2021.nc,0.0003537005321967351,1.6706710197237271,0.4808752333766837,1.352443162505582,,2.5316782,3.2478964,0.63475496,0.015549594,12.304051,43.758766,-344.27255,227.49672
689,398958.8283338784,0.00012645192576984574,MAR3.9_HadGEM2-ES_rcp85_ocean_1960-2100_v4.nc,RACMO2.3p2_ERA5_FGRN055_1940_2023.nc,0.00035468052064612063,1.0087264474681001,0.6507280503297657,1.5702738567509413,,2.9976237,3.3072603,0.74802953,0.017780576,7.4559827,42.30282,-398.33276,473.63037
690,585502.3679698228,7.908843058252778e-05,MAR3.9_CSIRO-Mk3.6_rcp85_ocean_1960-2100_v4.nc,RACMO2.3p2_ERA5_FGRN055_1940_2023.nc,0.000277737623981786,1.2036746340465514,0.3393117802686105,1.528455417811134,,2.3687792,3.2757192,0.76793504,0.014105081,8.876843,44.66353,-301.4629,261.46976
691,640081.7641538848,0.00014260189451530245,MAR3.9_MIROC-ESM-CHEM_rcp26_ocean_1960-2100_v4.nc,HIRHAM5-monthly-ERA5_1975_2021.nc,0.00025677978234505403,1.3252343880552109,0.3373649379488936,1.4478694874991973,pism_g450m_frontretreat_calfin_1972_2019.nc,3.0380986,3.3743637,0.8742051,0.02048236,7.053601,40.600853,-271.9542,190.58955
692,668429.8498170129,0.0001419167916834,MAR3.9_HadGEM2-ES_rcp85_ocean_1960-2100_v4.nc,RACMO2.3p2_ERA5_FGRN055_1940_2023.nc,0.000254897331183083,1.662610922841043,0.4973206036841881,1.1423741416458684,,2.5123796,3.227036,0.6291198,0.016676469,8.394796,41.0514,-313.0982,120.850945
693,557714.8666152059,8.648510002746778e-05,MAR3.9_ACCESS1-3_rcp85_ocean_1960-2100_v4.nc,HIRHAM5-monthly-ERA5_1975_2021.nc,0.00030021590182720547,1.6348743333287772,0.4721082711235531,1.2531103236356984,pism_g450m_frontretreat_calfin_1972_2019.nc,3.0943,3.3605707,0.7433652,0.021160066,9.418963,41.04361,-229.3596,150.06049
694,655798.631585698,0.00012225031449048375,MAR3.9_IPSL-CM5-MR_rcp85_ocean_1960-2100_v4.nc,RACMO2.3p2_ERA5_FGRN055_1940_2023.nc,0.0002960198852508514,1.212008889095755,0.4674490873033822,1.1198786614127516,,2.492752,3.2901497,0.5783918,0.015840895,7.3386326,42.880978,-472.24606,182.89827
695,482136.0121954058,0.0001474667217445733,MAR3.9_IPSL-CM5-MR_rcp85_ocean_1960-2100_v4.nc,HIRHAM5-monthly-ERA5_1975_2021.nc,0.00027693027780319125,1.0317612565403071,0.8159609839119539,1.5351799867223164,,2.3895528,3.2641695,0.77171254,0.02445191,7.0757065,40.186413,-221.92778,229.51823
696,768689.8757966126,7.579424857813124e-05,MAR3.9_HadGEM2-ES_rcp85_ocean_1960-2100_v4.nc,HIRHAM5-monthly-ERA5_1975_2021.nc,0.0003270476016425135,1.4951213033702375,0.4833036370640976,1.7566418872934684,pism_g450m_frontretreat_calfin_1972_2019.nc,1.8865848,3.2945123,0.8003979,0.018004708,6.36396,42.47821,-280.44785,229.54382
697,584715.858809016,0.00014904765375394613,MAR3.9_CNRM-ESM2_ssp585_ocean_1960-2100_v4.nc,HIRHAM5-monthly-ERA5_1975_2021.nc,0.0002740121929911013,1.650606331839187,0.4749903259974906,1.407964982196061,pism_g450m_frontretreat_calfin_1972_2019.nc,2.8147936,3.337616,0.7491083,0.020555869,7.3202047,41.793327,-429.06152,225.25833
698,561699.6910591879,0.000145251506786857,MAR3.9_IPSL-CM5-MR_rcp85_ocean_1960-2100_v4.nc,MARv3.14-monthly-ERA5_1940_2023.nc,0.0002716681428793794,1.6238162248778145,0.7492354843593264,1.317579545712521,,2.997613,3.306216,0.7204177,0.020723043,8.022379,42.69461,-335.6848,163.684
699,370230.0186878605,0.00010999919125679172,MAR3.9_UKESM1-CM6_ssp585_ocean_1960-2100_v4.nc,RACMO2.3p2_ERA5_FGRN055_1940_2023.nc,0.0002725643163775941,1.421371522793248,0.3720872811833058,1.2251062663765457,,3.048795,3.28379,0.7595584,0.021619318,7.876947,43.860813,-265.9463,182.73375
700,610780.5556862148,8.54951403038137e-05,MAR3.9_NorESM1-M_rcp85_ocean_1960-2100_v4.nc,HIRHAM5-monthly-ERA5_1975_2021.nc,0.00031991685710412287,1.392244914710249,0.6073373461652546,1.6521827318822258,pism_g450m_frontretreat_calfin_1972_2019.nc,3.014966,3.2951102,0.76252335,0.01595373,7.5189123,42.7584,-456.27536,290.23984
701,503327.21425469837,0.0001373505115748851,MAR3.9_MIROC-ESM-CHEM_rcp26_ocean_1960-2100_v4.nc,HIRHAM5-monthly-ERA5_1975_2021.nc,0.000321009455871304,1.4428243896847077,0.5925452280663293,1.175187865559287,,2.1801538,3.3021605,0.7148673,0.01461137,5.4249063,42.423775,-456.8165,264.87363
702,587979.1172513822,8.747550283490835e-05,MAR3.9_MIROC-ESM-CHEM_rcp26_ocean_1960-2100_v4.nc,MARv3.14-monthly-ERA5_1940_2023.nc,0.0002411914910720886,1.1839185278109572,0.41611649882089174,1.1129162557856223,pism_g450m_frontretreat_calfin_1972_2019.nc,2.7016098,3.3419583,0.7939582,0.0246535,5.122278,40.76728,-297.1894,440.39322
703,710681.918145054,0.00010308798530115827,MAR3.9_NorESM1-M_rcp85_ocean_1960-2100_v4.nc,HIRHAM5-monthly-ERA5_1975_2021.nc,0.0002506382895517121,1.4104790167699937,0.6774871876144956,1.4598905092273151,,2.5863044,3.268186,0.89365244,0.018664608,7.5290384,43.503036,-320.37268,216.44806
704,377491.027559776,9.447029769579917e-05,MAR3.9_CNRM-CM6_ssp126_ocean_1960-2100_v4.nc,HIRHAM5-monthly-ERA5_1975_2021.nc,0.000325564048212022,1.5512838796870883,0.7827618912726355,1.35326073275319,,2.762285,3.3108945,0.6921348,0.01915058,7.2834196,41.055405,-375.65567,297.78745
705,516335.3286235287,7.534984274688928e-05,MAR3.9_CNRM-ESM2_ssp585_ocean_1960-2100_v4.nc,RACMO2.3p2_ERA5_FGRN055_1940_2023.nc,0.0002421456412805522,1.4809678342132018,0.41996580333805106,1.7103382631420483,pism_g450m_frontretreat_calfin_1972_2019.nc,1.8188425,3.276389,0.79665446,0.019299943,7.8853145,40.63024,-241.44722,242.8787
706,795793.3976576531,9.113058883682575e-05,MAR3.9_CSIRO-Mk3.6_rcp85_ocean_1960-2100_v4.nc,MARv3.14-monthly-ERA5_1940_2023.nc,0.00033925613089904705,1.0239782902494898,0.48478898006563953,1.4551510851627767,,2.4829667,3.350529,0.79013467,0.020773105,6.8735743,40.89512,-335.81946,223.74
707,637035.5611936003,0.0001403128670346774,MAR3.9_CSIRO-Mk3.6_rcp85_ocean_1960-2100_v4.nc,MARv3.14-monthly-ERA5_1940_2023.nc,0.00025349356539605347,1.4599043622378423,0.47384852905845615,1.4765520153090075,,2.5912051,3.2784834,0.6969365,0.02372881,5.0172615,44.00468,-322.46686,218.88664
708,313190.00983901665,7.760570500553717e-05,MAR3.9_ACCESS1-3_rcp85_ocean_1960-2100_v4.nc,HIRHAM5-monthly-ERA5_1975_2021.nc,0.00030775753787588085,1.416464250354207,0.32443924350166775,1.3130808813235602,,2.7600174,3.3347719,0.850927,0.018627439,5.819853,43.733265,-377.138,313.47235
709,533845.0025251559,9.718795193956232e-05,MAR3.9_HadGEM2-ES_rcp85_ocean_1960-2100_v4.nc,MARv3.14-monthly-ERA5_1940_2023.nc,0.0003517320990503354,1.281791022972382,0.5848518582853481,1.1082439216055051,,2.7126527,3.323743,0.8175581,0.018119952,5.997971,43.297188,-290.71783,175.51859
710,736390.0229723364,9.562539515989942e-05,MAR3.9_UKESM1-CM6_ssp585_ocean_1960-2100_v4.nc,RACMO2.3p2_ERA5_FGRN055_1940_2023.nc,0.00033738780334626806,1.238598091281045,0.5166938136925542,1.6622585831778829,pism_g450m_frontretreat_calfin_1972_2019.nc,2.919507,3.303872,0.74700814,0.0208137,7.7983313,43.35148,-327.06317,240.17952
711,418036.89763117605,0.00014116536085728417,MAR3.9_UKESM1-CM6_ssp585_ocean_1960-2100_v4.nc,MARv3.14-monthly-ERA5_1940_2023.nc,0.0002669796082469627,1.4459974408538951,0.39742651837172216,1.4734033069795798,,2.760743,3.3098378,0.83153206,0.01984753,6.917171,44.359024,-462.0622,346.1844
712,368217.9565586337,0.00011252804957799062,MAR3.9_NorESM1-M_rcp85_ocean_1960-2100_v4.nc,RACMO2.3p2_ERA5_FGRN055_1940_2023.nc,0.00024885006738031395,1.0615551839661457,0.5315699804209147,1.2937702822445258,,2.9237955,3.2963815,0.77843237,0.016895192,8.6640415,42.690342,-359.76712,115.21551
713,369065.38820655434,0.0001238965160132817,MAR3.9_MIROC-ESM-CHEM_rcp26_ocean_1960-2100_v4.nc,HIRHAM5-monthly-ERA5_1975_2021.nc,0.00030819813041276683,1.675478298493327,0.5551663653722114,1.1300072124449714,,2.8531318,3.3149302,0.8519846,0.019765511,5.156437,42.404613,-372.90222,212.40334
714,325225.5051956336,0.00011319412715403059,MAR3.9_IPSL-CM5-MR_rcp85_ocean_1960-2100_v4.nc,HIRHAM5-monthly-ERA5_1975_2021.nc,0.0003560336390474075,1.0143980149655034,0.43632678354084203,1.2266394774982783,pism_g450m_frontretreat_calfin_1972_2019.nc,2.9998174,3.3394268,0.83972096,0.019094985,7.978793,44.648335,-317.379,242.16891
715,373698.97554042283,0.00012596475976317623,MAR3.9_MIROC-ESM-CHEM_rcp26_ocean_1960-2100_v4.nc,RACMO2.3p2_ERA5_FGRN055_1940_2023.nc,0.00029837792327481723,1.4768765949672378,0.49571695602375515,1.644344534636505,,2.7122734,3.3135042,0.6762842,0.012362133,8.10567,43.340633,-432.38284,100.274445
716,357957.69237465865,0.00012166376470784421,MAR3.9_ACCESS1-3_rcp85_ocean_1960-2100_v4.nc,RACMO2.3p2_ERA5_FGRN055_1940_2023.nc,0.00034293611885168984,1.0139857133676944,0.4890734066246559,1.1328368124466837,,2.4785783,3.3057587,0.82756627,0.014823474,7.2290435,43.489754,-460.11856,254.92566
717,571473.0757619928,7.954189740513271e-05,MAR3.9_CNRM-ESM2_ssp585_ocean_1960-2100_v4.nc,HIRHAM5-monthly-ERA5_1975_2021.nc,0.000267523839991089,1.0848810403330233,0.37037137236241174,1.3644662736156685,pism_g450m_frontretreat_calfin_1972_2019.nc,2.2623281,3.296495,0.67236894,0.015676713,11.020155,40.739666,-391.09543,195.55272
718,566230.1583226789,0.00013413021045013675,MAR3.9_CNRM-ESM2_ssp585_ocean_1960-2100_v4.nc,HIRHAM5-monthly-ERA5_1975_2021.nc,0.00025861709536109857,1.3982883571827673,0.7175047234133243,1.3589445743809856,,2.3867114,3.2965188,0.6133993,0.018147014,9.609434,42.72997,-382.30072,310.85135
719,673525.6416226747,8.609589997684554e-05,MAR3.9_MIROC-ESM-CHEM_rcp26_ocean_1960-2100_v4.nc,HIRHAM5-monthly-ERA5_1975_2021.nc,0.00029524288045868933,1.4320286234494626,0.7342084694800504,1.6967372331145087,pism_g450m_frontretreat_calfin_1972_2019.nc,2.7703662,3.3412504,0.7990645,0.019235378,5.009238,43.245613,-383.32214,245.95671
720,479977.2277481603,0.0001278956145479582,MAR3.9_MIROC-ESM-CHEM_rcp26_ocean_1960-2100_v4.nc,MARv3.14-monthly-ERA5_1940_2023.nc,0.0002631628030762643,1.2301227853188141,0.42683445162482103,1.4583058802278261,,2.5001047,3.3512042,0.85812885,0.02112446,6.951419,43.02281,-380.57657,282.1308
721,649175.8972443077,0.00013992219783822378,MAR3.9_IPSL-CM5-MR_rcp85_ocean_1960-2100_v4.nc,RACMO2.3p2_ERA5_FGRN055_1940_2023.nc,0.0002638802556552273,1.4444672561552985,0.45616582502298497,1.4555967912540493,pism_g450m_frontretreat_calfin_1972_2019.nc,2.4277349,3.2281756,0.6445022,0.014703681,6.798531,43.2731,-390.9477,150.0018
722,578427.8483655243,0.0001113103202356142,MAR3.9_NorESM1-M_rcp85_ocean_1960-2100_v4.nc,HIRHAM5-monthly-ERA5_1975_2021.nc,0.00024738428596590673,1.1255467518000255,0.7294166165049538,1.7798497725869546,,2.88392,3.4140456,0.86073905,0.018384323,8.658264,41.852707,-317.22885,207.55937
723,587219.0849976515,0.00013345605918198711,MAR3.9_MIROC-ESM-CHEM_rcp26_ocean_1960-2100_v4.nc,MARv3.14-monthly-ERA5_1940_2023.nc,0.0002928915672053377,1.5769199541004117,0.35409362886610635,1.197991063732897,,2.7753787,3.282377,0.7008474,0.024497315,7.1708603,40.561348,-353.85114,485.29703
724,481267.9659804192,0.00013626997162952812,MAR3.9_MIROC-ESM-CHEM_rcp26_ocean_1960-2100_v4.nc,MARv3.14-monthly-ERA5_1940_2023.nc,0.00032380108685395195,1.683417479691272,0.5885470109600628,1.7140927445717065,,2.36046,3.3532534,0.89727443,0.014357879,6.078136,44.1612,-545.9127,281.7166
725,650887.1352723842,8.533777321178632e-05,MAR3.9_NorESM1-M_rcp85_ocean_1960-2100_v4.nc,MARv3.14-monthly-ERA5_1940_2023.nc,0.00027045176670264495,1.3796314157282505,0.763731954509244,1.532760947813098,,2.334657,3.372791,0.59151345,0.018790755,7.868753,44.45933,-547.5809,304.28384
726,557194.0224791493,0.00013595402951975343,MAR3.9_ACCESS1-3_rcp85_ocean_1960-2100_v4.nc,RACMO2.3p2_ERA5_FGRN055_1940_2023.nc,0.00033462449322034776,1.001477392738061,0.354802667769602,1.750701411755052,pism_g450m_frontretreat_calfin_1972_2019.nc,2.4665897,3.2839065,0.8083165,0.01787209,5.9410014,42.858017,-321.12582,294.90216
727,471242.27218246786,0.00011086558301532832,MAR3.9_CNRM-CM6_ssp126_ocean_1960-2100_v4.nc,MARv3.14-monthly-ERA5_1940_2023.nc,0.000247044728828984,1.0150681212127879,0.4552511319665228,1.5321123649712027,,2.9093802,3.3024948,0.8343394,0.014412256,6.5181437,44.926327,-385.8268,210.86903
728,586275.9822790686,0.000148141213562777,MAR3.9_IPSL-CM5-MR_rcp85_ocean_1960-2100_v4.nc,HIRHAM5-monthly-ERA5_1975_2021.nc,0.0003030348747056807,1.190419662514437,0.8138478936639966,1.2477949926878777,,2.9348931,3.2829514,0.6756672,0.023097632,6.697701,40.41046,-488.14578,349.02423
729,394818.9584300245,0.00011840567335941792,MAR3.9_MIROC-ESM-CHEM_rcp26_ocean_1960-2100_v4.nc,RACMO2.3p2_ERA5_FGRN055_1940_2023.nc,0.0003414167029928696,1.186241618762252,0.31835351258393263,1.5081910855868557,pism_g450m_frontretreat_calfin_1972_2019.nc,2.8906813,3.2816772,0.5576344,0.023013124,6.822446,41.188244,-408.0993,259.80292
730,562410.8881839815,0.0001089162806852514,MAR3.9_UKESM1-CM6_ssp585_ocean_1960-2100_v4.nc,HIRHAM5-monthly-ERA5_1975_2021.nc,0.00027406112936553665,1.6692391160344517,0.7113045037503308,1.3673715776801858,,3.420566,3.3139474,0.71042204,0.020658553,6.550614,44.416508,-307.99652,208.56412
731,434424.7572853413,0.00013858968764001654,MAR3.9_UKESM1-CM6_ssp585_ocean_1960-2100_v4.nc,RACMO2.3p2_ERA5_FGRN055_1940_2023.nc,0.00032457784388890677,1.1021902981680611,0.7506858172238882,1.3539997951573512,pism_g450m_frontretreat_calfin_1972_2019.nc,2.4451582,3.3592434,0.73216486,0.017901039,6.3234053,42.51664,-378.91464,107.816925
732,401992.69270493096,8.391468035500595e-05,MAR3.9_IPSL-CM5-MR_rcp85_ocean_1960-2100_v4.nc,MARv3.14-monthly-ERA5_1940_2023.nc,0.00033189341232639605,1.07000521162335,0.3994819944018413,1.6566275526754533,,2.083135,3.2922394,0.7752678,0.021201646,6.1256266,40.56147,-310.9604,355.58884
733,639796.4988824811,0.00013369263113360418,MAR3.9_HadGEM2-ES_rcp85_ocean_1960-2100_v4.nc,HIRHAM5-monthly-ERA5_1975_2021.nc,0.00029337327742597,1.3267164530492779,0.6345238719835711,1.36093110367259,,1.5828799,3.3525348,0.8733926,0.013257758,6.8209214,44.021873,-311.14383,87.71901
734,555682.36926797,0.00011811897334286416,MAR3.9_CSIRO-Mk3.6_rcp85_ocean_1960-2100_v4.nc,HIRHAM5-monthly-ERA5_1975_2021.nc,0.00034264648389838306,1.1420567961141956,0.4389003403681295,1.762098550298715,pism_g450m_frontretreat_calfin_1972_2019.nc,2.8848312,3.3768747,0.8124562,0.018815057,6.6916194,43.802284,-354.77155,57.78385
735,451291.2347970918,8.63269823482528e-05,MAR3.9_MIROC-ESM-CHEM_rcp26_ocean_1960-2100_v4.nc,HIRHAM5-monthly-ERA5_1975_2021.nc,0.0003144119247967956,1.1800783607100658,0.490696826740025,1.2420882989473931,pism_g450m_frontretreat_calfin_1972_2019.nc,2.3569462,3.309855,0.7862628,0.016089195,5.416982,41.966515,-458.80008,269.32895
736,710236.8773194295,0.00010186961758959585,MAR3.9_IPSL-CM5-MR_rcp85_ocean_1960-2100_v4.nc,HIRHAM5-monthly-ERA5_1975_2021.nc,0.0003333643023932832,1.6007662207267694,0.6122110431723957,1.464286707069831,,2.8051903,3.2753909,0.8147042,0.023367971,4.947287,43.29198,-321.2996,449.602
737,619894.6866697577,0.00014219313174593001,MAR3.9_HadGEM2-ES_rcp85_ocean_1960-2100_v4.nc,MARv3.14-monthly-ERA5_1940_2023.nc,0.0003521447066460901,1.0219915359546516,0.7404757688325612,1.5161024729312453,pism_g450m_frontretreat_calfin_1972_2019.nc,2.8014314,3.2883873,0.62157315,0.018548172,8.171572,42.245705,-418.04233,257.58484
738,560987.1881908227,9.283241156665477e-05,MAR3.9_IPSL-CM5-MR_rcp85_ocean_1960-2100_v4.nc,MARv3.14-monthly-ERA5_1940_2023.nc,0.0003228588240642137,1.1983556018541957,0.43571912033177107,1.3194328021146853,,2.8679078,3.3177748,0.79575676,0.0192347,7.6998353,42.36655,-229.88536,67.57508
739,631562.3522896599,0.00012489617463334922,MAR3.9_UKESM1-CM6_ssp585_ocean_1960-2100_v4.nc,RACMO2.3p2_ERA5_FGRN055_1940_2023.nc,0.00033789158804938425,1.089969481337869,0.7688513770604433,1.3842674058324895,,2.6077862,3.2684996,0.7899535,0.02271108,5.768755,41.28514,-367.66556,486.68167
740,590105.9481221018,0.0001122377534419101,MAR3.9_NorESM1-M_rcp85_ocean_1960-2100_v4.nc,RACMO2.3p2_ERA5_FGRN055_1940_2023.nc,0.0002452862454826944,1.228380989948942,0.5140454754305979,1.5076897111164078,pism_g450m_frontretreat_calfin_1972_2019.nc,2.8937342,3.2686017,0.80758256,0.024443593,6.449498,40.860058,-238.79385,212.0882
741,552655.5541281084,8.31014388371432e-05,MAR3.9_UKESM1-CM6_ssp585_ocean_1960-2100_v4.nc,RACMO2.3p2_ERA5_FGRN055_1940_2023.nc,0.0003475440907388732,1.002006981226846,0.31595616284397576,1.179061738212343,,2.6671953,3.2859178,0.52854204,0.020488651,7.365996,41.079464,-454.04745,233.53676
742,550259.3978258988,0.00011973700543705288,MAR3.9_NorESM1-M_rcp85_ocean_1960-2100_v4.nc,MARv3.14-monthly-ERA5_1940_2023.nc,0.00033624267173068626,1.5824300096704431,0.34241143972029,1.5482722398007376,,2.7975547,3.2761602,0.6362918,0.021716181,8.247334,41.49945,-292.2048,117.01685
743,605116.5146113631,0.00010238368801271027,MAR3.9_MIROC-ESM-CHEM_rcp26_ocean_1960-2100_v4.nc,RACMO2.3p2_ERA5_FGRN055_1940_2023.nc,0.000336056150982431,1.063469669094903,0.4853442504564518,1.1630760772068218,pism_g450m_frontretreat_calfin_1972_2019.nc,2.841631,3.264615,0.7537196,0.02121349,8.647716,43.78392,-159.63377,110.315605
744,323049.72296059097,0.00012028297591109113,MAR3.9_NorESM1-M_rcp85_ocean_1960-2100_v4.nc,MARv3.14-monthly-ERA5_1940_2023.nc,0.00030905126390494355,1.2543495009246854,0.7845008801179675,1.7905971604775406,,2.742081,3.323002,0.6859818,0.014673779,7.103947,43.94898,-540.32874,210.03494
745,493461.79754970665,0.00013382079410892973,MAR3.9_NorESM1-M_rcp85_ocean_1960-2100_v4.nc,HIRHAM5-monthly-ERA5_1975_2021.nc,0.00024485480146733913,1.2443326083479578,0.6180205750799732,1.7746752268475832,pism_g450m_frontretreat_calfin_1972_2019.nc,2.4166892,3.3376446,0.7368675,0.023125207,12.14775,40.584026,-162.79231,317.14478
746,515725.7773175072,0.00013097428920239105,MAR3.9_IPSL-CM5-MR_rcp85_ocean_1960-2100_v4.nc,HIRHAM5-monthly-ERA5_1975_2021.nc,0.0002459137013909778,1.4880249006656403,0.41687277941458933,1.6070657502794623,pism_g450m_frontretreat_calfin_1972_2019.nc,2.5032527,3.3249788,0.8333939,0.0175995,8.391546,41.207474,-441.38092,394.89484
747,611775.735350465,0.00014887149262057591,MAR3.9_HadGEM2-ES_rcp85_ocean_1960-2100_v4.nc,MARv3.14-monthly-ERA5_1940_2023.nc,0.0003186855936430278,1.1825474555296591,0.811017496572942,1.4001816150740813,pism_g450m_frontretreat_calfin_1972_2019.nc,2.1301243,3.2637784,0.6489224,0.015454903,6.217715,41.3408,-529.7444,187.72853
748,564283.0797016716,7.657661460401801e-05,MAR3.9_CNRM-ESM2_ssp585_ocean_1960-2100_v4.nc,RACMO2.3p2_ERA5_FGRN055_1940_2023.nc,0.00029136620276704056,1.6962715500969003,0.530485492511598,1.2804946631933145,pism_g450m_frontretreat_calfin_1972_2019.nc,2.7079484,3.3149166,0.82734984,0.017335322,6.4193664,43.308987,-409.34427,183.14641
749,574396.1244156712,0.00013316403480159497,MAR3.9_CNRM-CM6_ssp126_ocean_1960-2100_v4.nc,RACMO2.3p2_ERA5_FGRN055_1940_2023.nc,0.0002924543580721026,1.2348196372680051,0.664783247432297,1.4409691540012037,,2.6401172,3.2948842,0.628972,0.01923903,11.382861,43.01351,-338.18497,362.41824
750,382101.7374900684,8.381143882595522e-05,MAR3.9_NorESM1-M_rcp85_ocean_1960-2100_v4.nc,HIRHAM5-monthly-ERA5_1975_2021.nc,0.00024279843139114109,1.546930619613792,0.47148604383733006,1.508734817347863,,1.9528933,3.2812788,0.83659816,0.012871117,8.109712,43.130035,-353.1327,209.60292
751,600179.4187530496,0.00010923813448871393,MAR3.9_IPSL-CM5-MR_rcp85_ocean_1960-2100_v4.nc,HIRHAM5-monthly-ERA5_1975_2021.nc,0.00029500536103639873,1.1908573323286176,0.5266055452625336,1.5039656282369358,,2.7543697,3.2839339,0.81663126,0.019292293,9.837865,41.314972,-208.8065,111.819115
752,475815.060734906,8.78970345623938e-05,MAR3.9_ACCESS1-3_rcp85_ocean_1960-2100_v4.nc,HIRHAM5-monthly-ERA5_1975_2021.nc,0.00026513075136579703,1.4927479139458326,0.3508559261110324,1.5869094127747059,pism_g450m_frontretreat_calfin_1972_2019.nc,2.6886458,3.296227,0.824843,0.018796261,5.5504527,43.06933,-430.57147,309.36514
753,406232.3643711839,0.00014235073324301767,MAR3.9_HadGEM2-ES_rcp85_ocean_1960-2100_v4.nc,RACMO2.3p2_ERA5_FGRN055_1940_2023.nc,0.00034169556805360105,1.2749401978907042,0.6884883243843236,1.2199398507417567,,3.184865,3.3656027,0.64829284,0.016350115,6.087956,43.57785,-519.4138,233.48898
754,511625.1685059931,8.915471276760895e-05,MAR3.9_CNRM-CM6_ssp126_ocean_1960-2100_v4.nc,HIRHAM5-monthly-ERA5_1975_2021.nc,0.00031167022563562135,1.3352373393546086,0.3098945795902177,1.7437030921040666,,3.045224,3.2913132,0.63792336,0.018761873,9.064302,44.065495,-378.52692,347.1154
755,570956.3269687453,8.158795931226084e-05,MAR3.9_CNRM-CM6_ssp126_ocean_1960-2100_v4.nc,HIRHAM5-monthly-ERA5_1975_2021.nc,0.00035031846391932674,1.041857049043448,0.8152057603162537,1.4981160419856208,,2.6901813,3.3015783,0.72404844,0.013397088,6.4069953,43.71123,-340.59802,31.964125
756,335081.3596282908,9.319752791310209e-05,MAR3.9_IPSL-CM5-MR_rcp85_ocean_1960-2100_v4.nc,HIRHAM5-monthly-ERA5_1975_2021.nc,0.0002521234389283269,1.497848003474609,0.6441974232480625,1.6161832084515593,,2.5090847,3.2988048,0.5578308,0.015547768,11.18671,43.059753,-441.29022,181.21616
757,760256.6964727752,0.00011880232584359461,MAR3.9_IPSL-CM5-MR_rcp85_ocean_1960-2100_v4.nc,HIRHAM5-monthly-ERA5_1975_2021.nc,0.00033537993110090787,1.3906556888496333,0.7712269512830835,1.202928819303658,pism_g450m_frontretreat_calfin_1972_2019.nc,2.9777796,3.306656,0.82284623,0.022095071,6.104948,43.873524,-247.75021,313.74585
758,559460.0606154231,0.00011700433885691722,MAR3.9_NorESM1-M_rcp85_ocean_1960-2100_v4.nc,RACMO2.3p2_ERA5_FGRN055_1940_2023.nc,0.00030938257772697,1.680697162876639,0.47631301318584546,1.7324732110792995,pism_g450m_frontretreat_calfin_1972_2019.nc,2.1728694,3.2927954,0.8221564,0.013675447,6.654595,43.1393,-303.1955,130.43605
759,497222.4106042208,8.838166581184699e-05,MAR3.9_CSIRO-Mk3.6_rcp85_ocean_1960-2100_v4.nc,MARv3.14-monthly-ERA5_1940_2023.nc,0.0002557897390918411,1.144394676244094,0.38705031724578853,1.4175398005885897,,2.9986432,3.3414326,0.669181,0.015655268,8.45623,42.895668,-458.18417,116.61477
760,420337.6271841519,0.0001453721432863655,MAR3.9_NorESM1-M_rcp85_ocean_1960-2100_v4.nc,MARv3.14-monthly-ERA5_1940_2023.nc,0.000359076454157434,1.68745378695219,0.6804797348319939,1.6772754341508036,,2.6641233,3.2954385,0.63667566,0.025563039,5.542909,40.367226,-403.85678,381.6793
761,714990.5495615259,0.0001192272316854368,MAR3.9_CNRM-CM6_ssp126_ocean_1960-2100_v4.nc,RACMO2.3p2_ERA5_FGRN055_1940_2023.nc,0.00031679881453705486,1.1026212708089627,0.5135967563920749,1.6413982621641319,pism_g450m_frontretreat_calfin_1972_2019.nc,2.2427783,3.3272638,0.654585,0.017725628,7.5199814,43.06806,-542.4554,270.44077
762,336867.9259302895,8.946011065815728e-05,MAR3.9_IPSL-CM5-MR_rcp85_ocean_1960-2100_v4.nc,HIRHAM5-monthly-ERA5_1975_2021.nc,0.0003366968376587449,1.5657741666712193,0.5105550209664168,1.2670790694203213,,2.5081415,3.3485234,0.66397834,0.015159466,5.7487464,44.059483,-549.9528,290.5285
763,331797.0601992251,0.0001404078840128504,MAR3.9_UKESM1-CM6_ssp585_ocean_1960-2100_v4.nc,RACMO2.3p2_ERA5_FGRN055_1940_2023.nc,0.00025884715634275833,1.5962443229598946,0.3441656582533201,1.3336604739815754,pism_g450m_frontretreat_calfin_1972_2019.nc,2.377512,3.290101,0.6903518,0.019862596,7.1606364,43.0934,-270.73798,309.6182
764,687539.9134492668,0.00011768849687121559,MAR3.9_HadGEM2-ES_rcp85_ocean_1960-2100_v4.nc,MARv3.14-monthly-ERA5_1940_2023.nc,0.00024838278087553644,1.5468410876122574,0.7482184304008468,1.7979770797000056,,2.9969351,3.3587797,0.7789704,0.024424717,6.99989,40.970753,-430.36755,429.5852
765,552209.4376617831,0.00014332220275107096,MAR3.9_IPSL-CM5-MR_rcp85_ocean_1960-2100_v4.nc,HIRHAM5-monthly-ERA5_1975_2021.nc,0.0003336857894271872,1.5359067827673192,0.7253615637458053,1.551365045395125,pism_g450m_frontretreat_calfin_1972_2019.nc,2.6336527,3.3137891,0.7826646,0.02560255,9.432814,40.90672,-202.03845,395.73737
766,735350.0202539079,0.00014600422680877384,MAR3.9_NorESM1-M_rcp85_ocean_1960-2100_v4.nc,HIRHAM5-monthly-ERA5_1975_2021.nc,0.0002602952149212464,1.284057852057992,0.5014368186441018,1.2054691911793673,pism_g450m_frontretreat_calfin_1972_2019.nc,1.8625522,3.3886342,0.8468304,0.013052842,9.104407,43.380615,-371.81754,111.662895
767,510516.7846844026,0.00011537533541652493,MAR3.9_CNRM-CM6_ssp126_ocean_1960-2100_v4.nc,MARv3.14-monthly-ERA5_1940_2023.nc,0.00026622049432018804,1.5980897185940068,0.578992655995504,1.272994828552118,,2.341362,3.3218763,0.7169281,0.026506832,6.1319346,40.166813,-338.6123,441.0669
768,432461.0410485986,8.210805941828342e-05,MAR3.9_NorESM1-M_rcp85_ocean_1960-2100_v4.nc,RACMO2.3p2_ERA5_FGRN055_1940_2023.nc,0.0002759941811051451,1.534990334776851,0.31947219609550154,1.2033079281921844,pism_g450m_frontretreat_calfin_1972_2019.nc,3.271402,3.3152566,0.8370803,0.019195719,7.4887223,44.216362,-383.1809,382.3723
769,691622.5129325698,0.00014830381130152994,MAR3.9_CSIRO-Mk3.6_rcp85_ocean_1960-2100_v4.nc,HIRHAM5-monthly-ERA5_1975_2021.nc,0.0003390203451317774,1.3255312946801157,0.47079421330061444,1.3913457333749508,pism_g450m_frontretreat_calfin_1972_2019.nc,3.05745,3.3521817,0.73374623,0.022216875,5.6999006,43.306602,-311.87827,132.52916
770,567847.3022506989,9.049529672184061e-05,MAR3.9_UKESM1-CM6_ssp585_ocean_1960-2100_v4.nc,MARv3.14-monthly-ERA5_1940_2023.nc,0.0003194566323795308,1.3169818637250557,0.6368201185634046,1.2695899053090693,pism_g450m_frontretreat_calfin_1972_2019.nc,2.3662026,3.3215659,0.837155,0.017791396,6.1186366,42.329247,-369.98105,240.42006
771,495233.2174840228,0.0001399745516570234,MAR3.9_MIROC-ESM-CHEM_rcp26_ocean_1960-2100_v4.nc,RACMO2.3p2_ERA5_FGRN055_1940_2023.nc,0.0002617687652494518,1.6998364878458307,0.36103750888364805,1.4776953982357826,,2.0406306,3.2708633,0.760765,0.012605396,8.425394,41.421986,-332.28082,187.26045
772,483671.73356787884,0.0001301765912902218,MAR3.9_IPSL-CM5-MR_rcp85_ocean_1960-2100_v4.nc,MARv3.14-monthly-ERA5_1940_2023.nc,0.0002501357028100094,1.3999035203548251,0.6332846906494747,1.6029827967595767,,2.313381,3.344838,0.83158827,0.023715513,6.75741,41.204838,-247.7919,409.89746
773,421953.92800578754,0.00013304460921750836,MAR3.9_HadGEM2-ES_rcp85_ocean_1960-2100_v4.nc,MARv3.14-monthly-ERA5_1940_2023.nc,0.0002876214195143689,1.4611966116439623,0.8001338123408854,1.692074340647347,,2.754905,3.274848,0.85872835,0.020798761,10.642106,42.400738,-164.75146,162.52965
774,662275.9893069356,0.00011446084394375278,MAR3.9_HadGEM2-ES_rcp85_ocean_1960-2100_v4.nc,HIRHAM5-monthly-ERA5_1975_2021.nc,0.00027739056344031716,1.0603393176703027,0.8428333445875751,1.2409698367346509,pism_g450m_frontretreat_calfin_1972_2019.nc,2.1752858,3.3224337,0.7718467,0.012657263,10.4569845,42.03244,-430.0384,136.27188
775,694003.4468311104,0.00014401521151312225,MAR3.9_NorESM1-M_rcp85_ocean_1960-2100_v4.nc,RACMO2.3p2_ERA5_FGRN055_1940_2023.nc,0.000255346933272077,1.5588512248132713,0.8129126660667712,1.1179253592330816,,2.5581872,3.2877665,0.7946586,0.015834337,7.188564,41.95891,-332.6694,124.79723
776,625819.5142925715,7.647719572154568e-05,MAR3.9_IPSL-CM5-MR_rcp85_ocean_1960-2100_v4.nc,MARv3.14-monthly-ERA5_1940_2023.nc,0.00035803706899126687,1.2003812047136835,0.7096736541973201,1.6617461864754715,,3.2037005,3.335264,0.8229511,0.026000114,5.4153337,43.376972,-266.18704,370.16217
777,581826.3627281506,0.00013672307059885646,MAR3.9_IPSL-CM5-MR_rcp85_ocean_1960-2100_v4.nc,HIRHAM5-monthly-ERA5_1975_2021.nc,0.00028912335699484776,1.6881241947614436,0.506883475259578,1.4817008924983168,,2.5807843,3.3287957,0.8074382,0.02232764,7.9419637,44.401333,-311.60196,449.24646
778,332319.5429115843,0.00011496045137653233,MAR3.9_ACCESS1-3_rcp85_ocean_1960-2100_v4.nc,MARv3.14-monthly-ERA5_1940_2023.nc,0.00034488697741263345,1.2205240878331685,0.8490184857871541,1.1293111498482058,pism_g450m_frontretreat_calfin_1972_2019.nc,2.700181,3.274574,0.68760806,0.019874847,8.933964,42.40072,-336.38373,290.51312
779,652776.4129504083,0.00013122200515192545,MAR3.9_CNRM-ESM2_ssp585_ocean_1960-2100_v4.nc,RACMO2.3p2_ERA5_FGRN055_1940_2023.nc,0.00031640646521061285,1.6271685391883821,0.8044543128650645,1.3860729866270587,,2.8868575,3.335594,0.5968509,0.019827789,9.753424,41.47655,-373.21918,207.21294
780,378630.1578722414,0.00011675515144778514,MAR3.9_IPSL-CM5-MR_rcp85_ocean_1960-2100_v4.nc,HIRHAM5-monthly-ERA5_1975_2021.nc,0.0003241375317284456,1.1940692690435015,0.6377902578919215,1.6299692472594527,,2.8048613,3.2748184,0.72061217,0.018155454,6.8199687,42.39163,-468.38763,305.8896
781,521391.3288813891,0.00010093793333215622,MAR3.9_CNRM-CM6_ssp126_ocean_1960-2100_v4.nc,MARv3.14-monthly-ERA5_1940_2023.nc,0.000306162303887364,1.0567285607995873,0.6071965987152022,1.5138353671712383,,2.2494378,3.2919438,0.77446693,0.02125308,9.751208,40.558636,-270.7757,371.61374
782,471493.4625014169,0.00013114873740186083,MAR3.9_ACCESS1-3_rcp85_ocean_1960-2100_v4.nc,MARv3.14-monthly-ERA5_1940_2023.nc,0.0002868349866375501,1.1405925466051492,0.8353083956415468,1.1578609615559208,,2.3269978,3.3265004,0.8643411,0.017151209,6.022835,43.161507,-500.05515,429.0213
783,309349.44211298914,0.00012395591393882233,MAR3.9_CNRM-CM6_ssp126_ocean_1960-2100_v4.nc,HIRHAM5-monthly-ERA5_1975_2021.nc,0.00027649792197170965,1.009698645052231,0.37709384197876206,1.50333392541845,,2.8678522,3.2832317,0.67624235,0.019551387,8.951732,42.74131,-319.78018,330.0533
784,684368.9267282666,7.85912473836459e-05,MAR3.9_ACCESS1-3_rcp85_ocean_1960-2100_v4.nc,RACMO2.3p2_ERA5_FGRN055_1940_2023.nc,0.00031088423410444957,1.0816343348478272,0.401344421333909,1.1132963583327253,pism_g450m_frontretreat_calfin_1972_2019.nc,2.677258,3.3486915,0.8863798,0.021953056,6.054122,44.38766,-276.81354,194.73236
785,540505.6434690022,0.00012199430503018716,MAR3.9_CSIRO-Mk3.6_rcp85_ocean_1960-2100_v4.nc,RACMO2.3p2_ERA5_FGRN055_1940_2023.nc,0.00031043023775007066,1.4030321663595715,0.51817829625455,1.595204680709122,,2.5686898,3.3061283,0.73219514,0.01890105,8.724274,44.0396,-285.09293,309.497
786,701992.1594272702,8.847737526546307e-05,MAR3.9_IPSL-CM5-MR_rcp85_ocean_1960-2100_v4.nc,MARv3.14-monthly-ERA5_1940_2023.nc,0.00025551411943101877,1.030105150429792,0.32012074168792026,1.7929237786256826,,2.928116,3.3001125,0.6750487,0.022625882,5.6208434,44.78441,-424.9324,418.75372
787,345030.55251004954,0.00013773645497506957,MAR3.9_HadGEM2-ES_rcp85_ocean_1960-2100_v4.nc,MARv3.14-monthly-ERA5_1940_2023.nc,0.00026564093378673515,1.1280152809898913,0.8291628914895086,1.1333207229333178,pism_g450m_frontretreat_calfin_1972_2019.nc,2.2620642,3.2965264,0.7473349,0.010445041,8.126164,44.266624,-451.44287,194.7914
788,606043.3087171707,0.00010580120226331188,MAR3.9_UKESM1-CM6_ssp585_ocean_1960-2100_v4.nc,HIRHAM5-monthly-ERA5_1975_2021.nc,0.000301084735920396,1.2701413849684295,0.40454862142374015,1.4063361380882125,,2.8212214,3.3853712,0.78393215,0.018261887,7.9909663,44.385017,-388.2663,343.8704
789,461184.63435067964,9.045303704548517e-05,MAR3.9_IPSL-CM5-MR_rcp85_ocean_1960-2100_v4.nc,MARv3.14-monthly-ERA5_1940_2023.nc,0.00025278648403315597,1.464701588648871,0.4405964829798964,1.7757602043230838,pism_g450m_frontretreat_calfin_1972_2019.nc,2.3431566,3.345411,0.77587813,0.016252052,8.254431,42.69347,-362.99237,232.10399
790,799058.1885700151,8.559318073821304e-05,MAR3.9_HadGEM2-ES_rcp85_ocean_1960-2100_v4.nc,RACMO2.3p2_ERA5_FGRN055_1940_2023.nc,0.00030797098884742465,1.246466196500466,0.5965159374628026,1.3348203405269994,pism_g450m_frontretreat_calfin_1972_2019.nc,2.7634394,3.2881901,0.7642331,0.018219097,7.9201922,43.0993,-367.5306,214.57932
791,656674.7938874821,0.00013764825196501115,MAR3.9_NorESM1-M_rcp85_ocean_1960-2100_v4.nc,MARv3.14-monthly-ERA5_1940_2023.nc,0.0002995258487663542,1.1846516820685413,0.6555777030899694,1.1995133859946816,,3.2587776,3.2903593,0.71140075,0.02484931,7.0133133,41.74479,-231.7095,264.86282
792,745247.597063613,0.00011450626717194728,MAR3.9_ACCESS1-3_rcp85_ocean_1960-2100_v4.nc,MARv3.14-monthly-ERA5_1940_2023.nc,0.0003036733420000003,1.1288173700045177,0.3843799861144661,1.5173422591593801,pism_g450m_frontretreat_calfin_1972_2019.nc,2.479832,3.3095598,0.8337656,0.0142439455,7.535628,44.716923,-442.5637,184.6589
793,542006.0929403019,0.00013939130857313487,MAR3.9_ACCESS1-3_rcp85_ocean_1960-2100_v4.nc,RACMO2.3p2_ERA5_FGRN055_1940_2023.nc,0.00028645418181969163,1.4233832865680371,0.6432853938209557,1.7606141644375315,,2.7267902,3.3551683,0.8235021,0.024186349,6.9821515,43.319946,-260.23163,297.05777
794,733298.7594078311,0.00012125686343077437,MAR3.9_CNRM-CM6_ssp126_ocean_1960-2100_v4.nc,RACMO2.3p2_ERA5_FGRN055_1940_2023.nc,0.00026222913610373977,1.2626562950944353,0.3652483615846946,1.5787871428768665,pism_g450m_frontretreat_calfin_1972_2019.nc,2.5325744,3.3128939,0.9183251,0.02042851,11.748321,44.698555,-222.11038,321.7192
795,508326.3562838716,0.00013658759553215899,MAR3.9_ACCESS1-3_rcp85_ocean_1960-2100_v4.nc,HIRHAM5-monthly-ERA5_1975_2021.nc,0.0003042308332287148,1.205752797053036,0.41335975012050896,1.295982254115391,pism_g450m_frontretreat_calfin_1972_2019.nc,3.012623,3.321963,0.79200417,0.027333954,6.040386,42.94837,-280.19785,366.88443
796,310554.44225906,0.0001245527879311525,MAR3.9_MIROC-ESM-CHEM_rcp26_ocean_1960-2100_v4.nc,RACMO2.3p2_ERA5_FGRN055_1940_2023.nc,0.0002778461532003255,1.1775390220889983,0.3741822863146522,1.6668965311049186,,2.3097143,3.2587767,0.8238807,0.012696478,7.927255,43.940243,-329.59814,252.70396
797,309602.7440794657,0.00011938805325429548,MAR3.9_ACCESS1-3_rcp85_ocean_1960-2100_v4.nc,RACMO2.3p2_ERA5_FGRN055_1940_2023.nc,0.0002858249007168933,1.0353418290837402,0.6526639214165263,1.4010559624334653,pism_g450m_frontretreat_calfin_1972_2019.nc,2.5915103,3.2773023,0.64030355,0.016822286,6.951716,44.305603,-424.04834,249.45921
798,610144.1370691163,0.00014454482814750693,MAR3.9_NorESM1-M_rcp85_ocean_1960-2100_v4.nc,RACMO2.3p2_ERA5_FGRN055_1940_2023.nc,0.0003152332724764928,1.11548662244012,0.7000936015247798,1.5333283943194478,,1.5798924,3.3349075,0.8522994,0.019629516,7.306926,41.20501,-536.6534,791.736
799,579575.003401244,9.742147322748797e-05,MAR3.9_CNRM-CM6_ssp126_ocean_1960-2100_v4.nc,HIRHAM5-monthly-ERA5_1975_2021.nc,0.00033680267519966287,1.5507176349237237,0.7906022355631934,1.719073377039456,pism_g450m_frontretreat_calfin_1972_2019.nc,2.3303366,3.27393,0.75405425,0.021687215,7.243392,41.5897,-336.5948,494.60263
