id,calving.vonmises_calving.sigma_max,calving.rate_scaling.file,ocean.th.gamma_T,ocean_file,climate_file,frontal_melt.routing.parameter_a,frontal_melt.routing.parameter_b,frontal_melt.routing.power_alpha,frontal_melt.routing.power_beta,prescribed_retreat_file,stress_balance.sia.enhancement_factor,stress_balance.ssa.Glen_exponent,basal_resistance.pseudo_plastic.q,basal_yield_stress.mohr_coulomb.till_effective_fraction_overburden,basal_yield_stress.mohr_coulomb.topg_to_phi.phi_min,basal_yield_stress.mohr_coulomb.topg_to_phi.phi_max,basal_yield_stress.mohr_coulomb.topg_to_phi.topg_min,basal_yield_stress.mohr_coulomb.topg_to_phi.topg_max
0,500941.6302093789,seasonal_calving_id_4_1900_2025.nc,0.00010981517772627383,MAR3.9_MIROC-ESM-CHEM_rcp26_ocean_1960-2100_v4.nc,RACMO2.3p2_ERA5_FGRN055_1940_2023.nc,0.00025568075404702403,1.1358953962157927,0.7135737105977222,1.5892353328577347,pism_g450m_frontretreat_calfin_1972_2019.nc,3.100286,3.3476882,0.84107435,0.019301564,6.3698497,40.96744,-412.50742,145.02806
1,423772.3515735372,seasonal_calving_id_0_1900_2025.nc,8.169258690695056e-05,MAR3.9_IPSL-CM5-MR_rcp85_ocean_1960-2100_v4.nc,RACMO2.3p2_ERA5_FGRN055_1940_2023.nc,0.00030695321578327515,1.624570629189457,0.5813053378395698,1.2388756390842528,,3.252162,3.3573043,0.63789135,0.020952279,6.993229,43.492325,-443.67917,192.6107
2,526465.5712517962,seasonal_calving_id_4_1900_2025.nc,0.0001321133386073958,MAR3.9_IPSL-CM5-MR_rcp85_ocean_1960-2100_v4.nc,RACMO2.3p2_ERA5_FGRN055_1940_2023.nc,0.00033437727948927825,1.674439375327633,0.5190831888891948,1.103479059155777,,2.4917254,3.2827559,0.7337683,0.021445643,9.436784,43.668056,-239.09279,309.34076
3,560983.0350176763,seasonal_calving_id_1_1900_2025.nc,0.00012837344714716195,MAR3.9_MIROC-ESM-CHEM_rcp26_ocean_1960-2100_v4.nc,MARv3.14-monthly-ERA5_1940_2023.nc,0.00034314854249520993,1.2308521889160415,0.46257615413332553,1.6262049879053624,pism_g450m_frontretreat_calfin_1972_2019.nc,2.7147753,3.3190408,0.9007624,0.020876551,7.4294477,43.75386,-312.271,118.34568
4,389225.5634360608,seasonal_calving_id_3_1900_2025.nc,8.571748408953287e-05,MAR3.9_ACCESS1-3_rcp85_ocean_1960-2100_v4.nc,RACMO2.3p2_ERA5_FGRN055_1940_2023.nc,0.0003415907831433724,1.122952925860606,0.8167905324189708,1.7414858194391185,,3.2546835,3.2686415,0.72902447,0.022795271,5.768637,43.80301,-368.08838,292.29166
5,634113.4478187105,seasonal_calving_id_1_1900_2025.nc,0.00011851486062424113,MAR3.9_HadGEM2-ES_rcp85_ocean_1960-2100_v4.nc,RACMO2.3p2_ERA5_FGRN055_1940_2023.nc,0.0003481429609792919,1.0001620156613467,0.4805109620142557,1.691057744428444,pism_g450m_frontretreat_calfin_1972_2019.nc,2.257339,3.278858,0.9266394,0.01854757,5.8322444,40.356606,-346.4825,86.70324
6,528767.5344593516,seasonal_calving_id_2_1900_2025.nc,7.657559783696784e-05,MAR3.9_CSIRO-Mk3.6_rcp85_ocean_1960-2100_v4.nc,RACMO2.3p2_ERA5_FGRN055_1940_2023.nc,0.0002950599394540777,1.540097957727823,0.3980146739971364,1.7320007385477225,,2.8936493,3.294492,0.6957618,0.0228496,6.367109,41.74027,-247.74103,227.23145
7,361086.7207976658,seasonal_calving_id_2_1900_2025.nc,0.00014130849443623234,MAR3.9_UKESM1-CM6_ssp585_ocean_1960-2100_v4.nc,MARv3.14-monthly-ERA5_1940_2023.nc,0.00028600105427929186,1.3659080861109936,0.5293605285316512,1.21359153530923,,2.611699,3.319398,0.8422952,0.019665897,6.6085243,43.09789,-352.02698,460.43677
8,541963.2534043856,seasonal_calving_id_4_1900_2025.nc,0.00012332280349164863,MAR3.9_IPSL-CM5-MR_rcp85_ocean_1960-2100_v4.nc,RACMO2.3p2_ERA5_FGRN055_1940_2023.nc,0.0003318937811359852,1.4554417017347343,0.6711309437681166,1.7535135531549315,,2.1871226,3.370306,0.6685919,0.015819151,6.513448,44.309475,-542.5675,304.93002
9,619413.5185085156,seasonal_calving_id_3_1900_2025.nc,0.00010908065022660317,MAR3.9_HadGEM2-ES_rcp85_ocean_1960-2100_v4.nc,HIRHAM5-monthly-ERA5_1975_2021.nc,0.00031317092510450264,1.2411708525964478,0.3689944238135836,1.5657607118580614,,2.524925,3.3123806,0.8038906,0.020157732,9.37788,44.380123,-345.28058,439.68265
10,473827.8057263291,seasonal_calving_id_4_1900_2025.nc,0.00010335131385998505,MAR3.9_UKESM1-CM6_ssp585_ocean_1960-2100_v4.nc,RACMO2.3p2_ERA5_FGRN055_1940_2023.nc,0.00034023097786760933,1.6228174928161436,0.3266938778792692,1.2221279220585477,,2.7637823,3.3225768,0.8372808,0.02372715,5.7562284,43.842808,-458.10245,546.4934
11,353140.9950431995,seasonal_calving_id_3_1900_2025.nc,0.00014810813519955472,MAR3.9_HadGEM2-ES_rcp85_ocean_1960-2100_v4.nc,MARv3.14-monthly-ERA5_1940_2023.nc,0.0002526712577927434,1.2947901543901787,0.7445852475045307,1.7865681384632963,,2.6238358,3.2580783,0.81119055,0.02279151,7.0376406,42.33605,-215.51439,299.73947
12,585841.3357819489,seasonal_calving_id_4_1900_2025.nc,0.00011576232704182485,MAR3.9_ACCESS1-3_rcp85_ocean_1960-2100_v4.nc,HIRHAM5-monthly-ERA5_1975_2021.nc,0.0003276677603052421,1.3055974822446075,0.6304557049039847,1.3937534055511123,,2.24558,3.3097947,0.691741,0.019236146,7.1020637,40.323807,-361.17316,163.40067
13,507418.5878248034,seasonal_calving_id_2_1900_2025.nc,9.019007504911967e-05,MAR3.9_MIROC-ESM-CHEM_rcp26_ocean_1960-2100_v4.nc,RACMO2.3p2_ERA5_FGRN055_1940_2023.nc,0.0003378305084533057,1.6091298730241648,0.4915292771239834,1.7672767366819957,pism_g450m_frontretreat_calfin_1972_2019.nc,2.8303056,3.3437688,0.62262946,0.019179417,8.068878,44.847157,-556.94324,434.93936
14,493192.72999189654,seasonal_calving_id_1_1900_2025.nc,0.0001255802816325672,MAR3.9_ACCESS1-3_rcp85_ocean_1960-2100_v4.nc,RACMO2.3p2_ERA5_FGRN055_1940_2023.nc,0.00032106886705892085,1.529482784459218,0.3638599514972392,1.3974293528103825,pism_g450m_frontretreat_calfin_1972_2019.nc,2.856674,3.3435128,0.6234935,0.020456797,6.7662888,43.817745,-315.54337,150.8652
15,602638.723686412,seasonal_calving_id_1_1900_2025.nc,0.0001476675029416434,MAR3.9_CSIRO-Mk3.6_rcp85_ocean_1960-2100_v4.nc,MARv3.14-monthly-ERA5_1940_2023.nc,0.0003136537424573393,1.4286980650064653,0.5051811376601212,1.4035913269157105,,2.5561783,3.3140495,0.76420665,0.023817537,5.0226126,42.54412,-424.28302,241.53755
16,645795.5039655995,seasonal_calving_id_4_1900_2025.nc,0.00013917929181535852,MAR3.9_CNRM-CM6_ssp126_ocean_1960-2100_v4.nc,MARv3.14-monthly-ERA5_1940_2023.nc,0.0002537436595960026,1.2226424591592422,0.4954312585431983,1.4638259644843061,pism_g450m_frontretreat_calfin_1972_2019.nc,3.3025904,3.280511,0.6322809,0.02213337,6.4556875,43.040375,-407.33685,361.1323
17,372185.47254684684,seasonal_calving_id_2_1900_2025.nc,0.00014873263755120773,MAR3.9_UKESM1-CM6_ssp585_ocean_1960-2100_v4.nc,RACMO2.3p2_ERA5_FGRN055_1940_2023.nc,0.0002583152064068403,1.5575824482772531,0.6613206359706634,1.3428201138501568,pism_g450m_frontretreat_calfin_1972_2019.nc,3.1919386,3.28948,0.75974363,0.025069876,7.8660173,41.661007,-245.19774,415.37854
18,559597.9241647555,seasonal_calving_id_1_1900_2025.nc,0.000119528126522378,MAR3.9_IPSL-CM5-MR_rcp85_ocean_1960-2100_v4.nc,HIRHAM5-monthly-ERA5_1975_2021.nc,0.0003560800141885654,1.0864457883910013,0.5118557044882334,1.3159772893629955,pism_g450m_frontretreat_calfin_1972_2019.nc,2.3326242,3.2735863,0.58896726,0.017810915,6.452455,43.40671,-571.3325,436.40527
19,518431.56860362086,seasonal_calving_id_4_1900_2025.nc,0.00013385730734951417,MAR3.9_NorESM1-M_rcp85_ocean_1960-2100_v4.nc,HIRHAM5-monthly-ERA5_1975_2021.nc,0.0003433673191790731,1.059963049127943,0.8328173012944666,1.4484841840926634,pism_g450m_frontretreat_calfin_1972_2019.nc,2.9495444,3.2737858,0.5624729,0.027434602,6.5286007,42.768456,-493.03378,513.7101
20,549796.7947937438,seasonal_calving_id_1_1900_2025.nc,8.702268172737668e-05,MAR3.9_CNRM-ESM2_ssp585_ocean_1960-2100_v4.nc,RACMO2.3p2_ERA5_FGRN055_1940_2023.nc,0.00034586233468796696,1.5043927699798259,0.4457510748881027,1.2861426522996782,pism_g450m_frontretreat_calfin_1972_2019.nc,2.4084294,3.2309563,0.7416246,0.020252718,7.7029796,42.408802,-221.0511,271.50177
21,580162.801994141,seasonal_calving_id_0_1900_2025.nc,0.00014564712269698213,MAR3.9_MIROC-ESM-CHEM_rcp26_ocean_1960-2100_v4.nc,RACMO2.3p2_ERA5_FGRN055_1940_2023.nc,0.0002868656612171958,1.213744091709496,0.32994794778128755,1.6597687351990884,,2.311733,3.2919524,0.8134584,0.02162651,5.959268,40.60972,-276.3216,107.175446
22,460797.21764717204,seasonal_calving_id_0_1900_2025.nc,0.00010744022006899196,MAR3.9_IPSL-CM5-MR_rcp85_ocean_1960-2100_v4.nc,HIRHAM5-monthly-ERA5_1975_2021.nc,0.000268021586257175,1.169037259471031,0.7636657799546545,1.662147173423533,,2.3953178,3.2698667,0.6219164,0.018943261,9.36616,40.78248,-321.26633,183.98509
23,643673.2222428771,seasonal_calving_id_0_1900_2025.nc,9.971940006071924e-05,MAR3.9_ACCESS1-3_rcp85_ocean_1960-2100_v4.nc,MARv3.14-monthly-ERA5_1940_2023.nc,0.00025488587737265613,1.3370085619743308,0.6065773847461869,1.2980952449493264,,1.709826,3.3839536,0.78037775,0.015174961,8.272921,40.63073,-447.70856,170.30077
24,463035.9050097278,seasonal_calving_id_1_1900_2025.nc,0.00014433661753891026,MAR3.9_IPSL-CM5-MR_rcp85_ocean_1960-2100_v4.nc,HIRHAM5-monthly-ERA5_1975_2021.nc,0.0003170290754940231,1.4936449192378054,0.8184307734284944,1.6431420837046793,pism_g450m_frontretreat_calfin_1972_2019.nc,2.27642,3.3564415,0.8463586,0.015124151,9.938754,43.26558,-255.73361,99.600525
25,486647.12750081485,seasonal_calving_id_3_1900_2025.nc,7.777678547635275e-05,MAR3.9_UKESM1-CM6_ssp585_ocean_1960-2100_v4.nc,RACMO2.3p2_ERA5_FGRN055_1940_2023.nc,0.0002722066722097014,1.488241894186344,0.5745600755901643,1.1575177245296766,pism_g450m_frontretreat_calfin_1972_2019.nc,2.5378578,3.3638651,0.82573074,0.01625682,8.348259,42.91517,-285.38904,189.14001
26,380218.21653997764,seasonal_calving_id_0_1900_2025.nc,9.587387739867499e-05,MAR3.9_IPSL-CM5-MR_rcp85_ocean_1960-2100_v4.nc,MARv3.14-monthly-ERA5_1940_2023.nc,0.00028039282311114177,1.0774116006833723,0.7471878056009245,1.293668474036062,,3.1376104,3.3677652,0.79646856,0.019027583,9.169618,40.847702,-278.7112,76.92568
27,624355.2644558388,seasonal_calving_id_0_1900_2025.nc,8.367162763682167e-05,MAR3.9_HadGEM2-ES_rcp85_ocean_1960-2100_v4.nc,HIRHAM5-monthly-ERA5_1975_2021.nc,0.0003083764021036506,1.0345764586886352,0.7609007009369925,1.7122353008232225,pism_g450m_frontretreat_calfin_1972_2019.nc,3.054481,3.3584595,0.75396776,0.020350607,10.220974,40.669735,-193.96964,179.53711
28,556620.3507742875,seasonal_calving_id_3_1900_2025.nc,0.00012473690644689898,MAR3.9_MIROC-ESM-CHEM_rcp26_ocean_1960-2100_v4.nc,RACMO2.3p2_ERA5_FGRN055_1940_2023.nc,0.00032928505512469844,1.0485994236496043,0.32128076706720743,1.4952316864790025,,2.1145175,3.2873745,0.75955594,0.017854558,10.723315,40.78624,-204.80183,246.9368
29,482672.72127609653,seasonal_calving_id_4_1900_2025.nc,9.376070701233154e-05,MAR3.9_CSIRO-Mk3.6_rcp85_ocean_1960-2100_v4.nc,MARv3.14-monthly-ERA5_1940_2023.nc,0.00028181717151092424,1.6574536881521835,0.5323764183258891,1.1527316732629522,,2.5881505,3.2746184,0.86679626,0.020084582,8.504507,43.428917,-270.10303,205.58217
30,479446.05114525685,seasonal_calving_id_0_1900_2025.nc,0.00010132353807279784,MAR3.9_ACCESS1-3_rcp85_ocean_1960-2100_v4.nc,HIRHAM5-monthly-ERA5_1975_2021.nc,0.0003161697237433743,1.474113650317326,0.7090659201974059,1.4351047392813436,,3.0998917,3.2750216,0.7926385,0.021884488,7.22203,44.393387,-376.61795,592.8857
31,523568.39605303877,seasonal_calving_id_4_1900_2025.nc,0.00010083006409460878,MAR3.9_HadGEM2-ES_rcp85_ocean_1960-2100_v4.nc,RACMO2.3p2_ERA5_FGRN055_1940_2023.nc,0.00030264126088883834,1.3785449266387904,0.7345176777106461,1.7202046314131059,pism_g450m_frontretreat_calfin_1972_2019.nc,2.2418172,3.3189,0.71714383,0.016303653,7.730033,42.149036,-334.3778,202.0606
32,375211.8131882389,seasonal_calving_id_1_1900_2025.nc,0.00011220297591998181,MAR3.9_CNRM-ESM2_ssp585_ocean_1960-2100_v4.nc,RACMO2.3p2_ERA5_FGRN055_1940_2023.nc,0.00026023799219354425,1.2707931640837526,0.5682226299105626,1.7960457166541501,,2.4291756,3.3480358,0.738157,0.023968749,7.4229064,41.396927,-466.91702,707.1026
33,534261.4817177765,seasonal_calving_id_3_1900_2025.nc,0.00010639629901986467,MAR3.9_NorESM1-M_rcp85_ocean_1960-2100_v4.nc,HIRHAM5-monthly-ERA5_1975_2021.nc,0.00030593931116920566,1.2342244171024122,0.48246614601707455,1.3280708240138426,,2.6785662,3.2912548,0.9138264,0.020186506,5.503325,44.497055,-348.02325,284.55316
34,543350.1088468696,seasonal_calving_id_4_1900_2025.nc,0.0001140815144051919,MAR3.9_UKESM1-CM6_ssp585_ocean_1960-2100_v4.nc,HIRHAM5-monthly-ERA5_1975_2021.nc,0.00027458955530332047,1.0228407391040062,0.5886593337394401,1.4711410489651722,pism_g450m_frontretreat_calfin_1972_2019.nc,2.558524,3.2236812,0.67974037,0.013608101,6.826517,44.268417,-422.9739,70.62363
35,637313.8617467586,seasonal_calving_id_1_1900_2025.nc,0.00012752115639813691,MAR3.9_ACCESS1-3_rcp85_ocean_1960-2100_v4.nc,HIRHAM5-monthly-ERA5_1975_2021.nc,0.0003245457486606665,1.3978565069586448,0.3806931221313353,1.3040071081972906,pism_g450m_frontretreat_calfin_1972_2019.nc,2.718995,3.3292506,0.84136456,0.027941661,5.50476,43.443535,-319.19473,313.81308
36,388088.26484246063,seasonal_calving_id_4_1900_2025.nc,0.00012982906378890965,MAR3.9_CSIRO-Mk3.6_rcp85_ocean_1960-2100_v4.nc,MARv3.14-monthly-ERA5_1940_2023.nc,0.00029206434235982726,1.3713144015408365,0.4309810583498886,1.4127844726556593,,2.89217,3.3016162,0.7465754,0.017472722,5.574302,44.05887,-341.68442,189.50443
37,417927.1776361562,seasonal_calving_id_0_1900_2025.nc,0.00010269503805779886,MAR3.9_CNRM-CM6_ssp126_ocean_1960-2100_v4.nc,HIRHAM5-monthly-ERA5_1975_2021.nc,0.00026284685631157987,1.0497769408301465,0.3598581312729405,1.549875406688671,pism_g450m_frontretreat_calfin_1972_2019.nc,2.2060444,3.230814,0.57996726,0.016958693,7.9729,40.492603,-424.63193,214.2603
38,564805.7638002997,seasonal_calving_id_3_1900_2025.nc,8.517783791017709e-05,MAR3.9_HadGEM2-ES_rcp85_ocean_1960-2100_v4.nc,MARv3.14-monthly-ERA5_1940_2023.nc,0.0002912703688943831,1.1500282481441413,0.5477983910108231,1.280785903953203,pism_g450m_frontretreat_calfin_1972_2019.nc,2.460396,3.3165603,0.7090369,0.01920595,5.7064233,40.931423,-482.72006,336.04025
39,629799.3506158903,seasonal_calving_id_2_1900_2025.nc,0.00011332080910356356,MAR3.9_UKESM1-CM6_ssp585_ocean_1960-2100_v4.nc,RACMO2.3p2_ERA5_FGRN055_1940_2023.nc,0.0002568449807578704,1.1113320589568028,0.39258028347400153,1.5167060111451653,pism_g450m_frontretreat_calfin_1972_2019.nc,2.9520864,3.365295,0.8902179,0.019351127,7.850997,40.84544,-291.9363,129.34792
40,615675.9185604483,seasonal_calving_id_3_1900_2025.nc,0.00010541767851296506,MAR3.9_ACCESS1-3_rcp85_ocean_1960-2100_v4.nc,HIRHAM5-monthly-ERA5_1975_2021.nc,0.00034936146010999835,1.2817324249598423,0.5624689829310833,1.6811655857299073,pism_g450m_frontretreat_calfin_1972_2019.nc,2.2463808,3.3310683,0.81539,0.020733558,6.380996,44.687798,-325.07764,304.882
41,397890.8298755389,seasonal_calving_id_0_1900_2025.nc,8.893275491421958e-05,MAR3.9_NorESM1-M_rcp85_ocean_1960-2100_v4.nc,HIRHAM5-monthly-ERA5_1975_2021.nc,0.0002643214308455709,1.1607999448486364,0.30752152773991526,1.6367046539746233,pism_g450m_frontretreat_calfin_1972_2019.nc,3.480601,3.3543777,0.5923777,0.019261803,7.0979414,42.441044,-435.3221,200.08174
42,595035.1525912759,seasonal_calving_id_4_1900_2025.nc,0.00013502466447087052,MAR3.9_NorESM1-M_rcp85_ocean_1960-2100_v4.nc,RACMO2.3p2_ERA5_FGRN055_1940_2023.nc,0.0002450839926550992,1.6919874741573495,0.687012355287109,1.1368548323937202,pism_g450m_frontretreat_calfin_1972_2019.nc,2.409018,3.2756355,0.8220446,0.014868326,5.241424,42.86658,-445.45673,294.17267
43,489963.20366862696,seasonal_calving_id_3_1900_2025.nc,0.00013107494904536949,MAR3.9_CNRM-CM6_ssp126_ocean_1960-2100_v4.nc,MARv3.14-monthly-ERA5_1940_2023.nc,0.0003531379430499359,1.6412800240411718,0.7999869141306167,1.4790918037095346,pism_g450m_frontretreat_calfin_1972_2019.nc,2.1433504,3.3030314,0.86468434,0.013378428,6.9961114,44.008568,-443.25363,224.43065
44,517040.421566201,seasonal_calving_id_3_1900_2025.nc,7.825310132941255e-05,MAR3.9_NorESM1-M_rcp85_ocean_1960-2100_v4.nc,MARv3.14-monthly-ERA5_1940_2023.nc,0.0003576190956595366,1.411507841235709,0.6096101612085979,1.5594259338103518,,2.0361722,3.291276,0.66396505,0.014021861,7.5964985,43.640003,-386.91974,67.39668
45,444694.6110245924,seasonal_calving_id_4_1900_2025.nc,0.00012108085540762101,MAR3.9_CSIRO-Mk3.6_rcp85_ocean_1960-2100_v4.nc,HIRHAM5-monthly-ERA5_1975_2021.nc,0.0002884562702838452,1.5915294003747862,0.6220189917015503,1.4401519738238417,pism_g450m_frontretreat_calfin_1972_2019.nc,2.6214473,3.3161917,0.7503832,0.018551486,8.770576,44.14275,-463.10403,244.85364
46,394705.96226110036,seasonal_calving_id_4_1900_2025.nc,9.884155026460009e-05,MAR3.9_NorESM1-M_rcp85_ocean_1960-2100_v4.nc,HIRHAM5-monthly-ERA5_1975_2021.nc,0.0003570133355070607,1.3285938432224027,0.30016557984724707,1.1678684782242148,,2.4977365,3.3516376,0.919034,0.01891187,7.3515215,42.753094,-197.88031,78.302795
47,410630.914677303,seasonal_calving_id_2_1900_2025.nc,0.00011677552836993593,MAR3.9_NorESM1-M_rcp85_ocean_1960-2100_v4.nc,MARv3.14-monthly-ERA5_1940_2023.nc,0.00028315429472679807,1.3133807769492618,0.40652493333210044,1.1210981037242158,,2.7613947,3.3153462,0.7984506,0.018254232,6.861112,41.76939,-291.81543,153.90056
48,503150.99636261584,seasonal_calving_id_2_1900_2025.nc,9.096442979072974e-05,MAR3.9_IPSL-CM5-MR_rcp85_ocean_1960-2100_v4.nc,RACMO2.3p2_ERA5_FGRN055_1940_2023.nc,0.00032191844396160866,1.0656875982004834,0.8254806388526637,1.128292059750569,pism_g450m_frontretreat_calfin_1972_2019.nc,2.4592245,3.296803,0.69938564,0.023091422,10.485026,43.677357,-293.4783,710.0729
49,514531.7177890318,seasonal_calving_id_3_1900_2025.nc,0.00012270954267839645,MAR3.9_IPSL-CM5-MR_rcp85_ocean_1960-2100_v4.nc,RACMO2.3p2_ERA5_FGRN055_1940_2023.nc,0.0002675066675203534,1.3207346715708481,0.6999660153149373,1.27174238735351,,2.4307485,3.1997836,0.6667703,0.022990977,8.439228,41.038704,-307.6111,429.15176
50,384078.19845543825,seasonal_calving_id_1_1900_2025.nc,8.211730848408776e-05,MAR3.9_CNRM-CM6_ssp126_ocean_1960-2100_v4.nc,MARv3.14-monthly-ERA5_1940_2023.nc,0.0002442791115885378,1.1753529136842158,0.3531100502828562,1.1874765960679141,pism_g450m_frontretreat_calfin_1972_2019.nc,3.2176545,3.3357744,0.7774564,0.019761862,8.242716,44.28093,-319.05618,250.2203
51,628772.1653039273,seasonal_calving_id_0_1900_2025.nc,0.00013996877177972482,MAR3.9_CNRM-CM6_ssp126_ocean_1960-2100_v4.nc,RACMO2.3p2_ERA5_FGRN055_1940_2023.nc,0.00030162487585195965,1.5240977216554676,0.7338416029570995,1.624142053885864,pism_g450m_frontretreat_calfin_1972_2019.nc,2.2210271,3.3391874,0.75734025,0.01684257,8.166832,44.032017,-401.52634,387.68033
52,453749.0499869608,seasonal_calving_id_2_1900_2025.nc,0.00013164919479040073,MAR3.9_CNRM-ESM2_ssp585_ocean_1960-2100_v4.nc,HIRHAM5-monthly-ERA5_1975_2021.nc,0.0003270595101594835,1.4539844483799693,0.4246045254916726,1.3348078032074322,pism_g450m_frontretreat_calfin_1972_2019.nc,2.9469984,3.2641244,0.7346564,0.019936329,8.350543,44.221058,-237.39938,203.81313
53,367451.91131587053,seasonal_calving_id_0_1900_2025.nc,8.803292448704321e-05,MAR3.9_MIROC-ESM-CHEM_rcp26_ocean_1960-2100_v4.nc,RACMO2.3p2_ERA5_FGRN055_1940_2023.nc,0.0002610883863435884,1.478686822324288,0.4997981254998811,1.5383352209846097,,2.2692447,3.2781417,0.75554585,0.020137016,5.362529,42.233154,-366.10873,300.91663
54,431300.91642998543,seasonal_calving_id_2_1900_2025.nc,0.00013708097180616818,MAR3.9_IPSL-CM5-MR_rcp85_ocean_1960-2100_v4.nc,MARv3.14-monthly-ERA5_1940_2023.nc,0.0003328734686360677,1.4015851912675303,0.40180749079220324,1.205183254817093,,2.1056664,3.281229,0.6492837,0.01684368,7.6213064,41.948772,-362.07742,106.003975
55,600690.5345037575,seasonal_calving_id_4_1900_2025.nc,0.00013870664315487197,MAR3.9_CNRM-CM6_ssp126_ocean_1960-2100_v4.nc,RACMO2.3p2_ERA5_FGRN055_1940_2023.nc,0.00029319054242795577,1.0357065371032104,0.556296292549328,1.266984818586609,pism_g450m_frontretreat_calfin_1972_2019.nc,2.8526258,3.3219514,0.66724056,0.014506862,6.5608826,44.544964,-439.874,99.27066
56,405500.35753716,seasonal_calving_id_0_1900_2025.nc,9.67166413587149e-05,MAR3.9_HadGEM2-ES_rcp85_ocean_1960-2100_v4.nc,HIRHAM5-monthly-ERA5_1975_2021.nc,0.00024999808426006987,1.1140826230345642,0.7947649623523534,1.2043788279647378,,2.520948,3.3068447,0.79240364,0.023510048,5.5655575,40.903202,-341.20367,214.97472
57,621613.1794892342,seasonal_calving_id_3_1900_2025.nc,0.0001418051924600232,MAR3.9_CNRM-ESM2_ssp585_ocean_1960-2100_v4.nc,MARv3.14-monthly-ERA5_1940_2023.nc,0.00028432022411036044,1.0106929715947994,0.726480556307191,1.7794828979108184,,2.4025955,3.3459637,0.8553277,0.01733569,7.5681458,43.439297,-354.25394,307.23087
58,377054.2448627119,seasonal_calving_id_1_1900_2025.nc,8.05243039948169e-05,MAR3.9_MIROC-ESM-CHEM_rcp26_ocean_1960-2100_v4.nc,MARv3.14-monthly-ERA5_1940_2023.nc,0.00028490696048568954,1.6089113518595615,0.6145205484923453,1.179874382134819,pism_g450m_frontretreat_calfin_1972_2019.nc,2.923062,3.2841783,0.8349593,0.021927929,5.821671,43.457005,-417.19498,326.29837
59,419341.42912584066,seasonal_calving_id_1_1900_2025.nc,0.00014379492317046587,MAR3.9_CNRM-ESM2_ssp585_ocean_1960-2100_v4.nc,MARv3.14-monthly-ERA5_1940_2023.nc,0.00033622560923321623,1.6821700455211652,0.8071830700982319,1.322124512198522,pism_g450m_frontretreat_calfin_1972_2019.nc,2.527679,3.3334405,0.66348773,0.017844427,7.2174177,43.361843,-416.54846,125.08181
60,574394.2585120616,seasonal_calving_id_3_1900_2025.nc,0.00014025939293384903,MAR3.9_UKESM1-CM6_ssp585_ocean_1960-2100_v4.nc,MARv3.14-monthly-ERA5_1940_2023.nc,0.00024194676292790956,1.2903933351034251,0.6552628655868767,1.52104583997446,,2.8703961,3.2673194,0.80317837,0.02372225,5.7474885,41.800938,-241.67413,190.60533
61,414231.83630993695,seasonal_calving_id_4_1900_2025.nc,9.272628651400997e-05,MAR3.9_CSIRO-Mk3.6_rcp85_ocean_1960-2100_v4.nc,HIRHAM5-monthly-ERA5_1975_2021.nc,0.00027047922300401517,1.3536514917118776,0.4367775150213434,1.3623481010306109,,2.5793037,3.326024,0.81051433,0.018053677,6.5847716,42.482605,-363.4546,166.39154
62,350337.6378131864,seasonal_calving_id_0_1900_2025.nc,8.314930226071982e-05,MAR3.9_ACCESS1-3_rcp85_ocean_1960-2100_v4.nc,MARv3.14-monthly-ERA5_1940_2023.nc,0.0003468134258607023,1.5522623712558137,0.334575775258785,1.6095601591272952,,2.8270507,3.3085494,0.6844314,0.01704102,8.562245,44.007294,-448.00998,196.1943
63,592061.3076446184,seasonal_calving_id_4_1900_2025.nc,0.00010043727373053314,MAR3.9_CNRM-ESM2_ssp585_ocean_1960-2100_v4.nc,HIRHAM5-monthly-ERA5_1975_2021.nc,0.00029926820044473275,1.661157791312375,0.7514309305590666,1.1438456703038284,pism_g450m_frontretreat_calfin_1972_2019.nc,2.2160695,3.2810917,0.76135916,0.015125565,5.7780423,44.338207,-365.15674,226.71414
64,509445.7129582345,seasonal_calving_id_2_1900_2025.nc,0.00010355386344920775,MAR3.9_UKESM1-CM6_ssp585_ocean_1960-2100_v4.nc,MARv3.14-monthly-ERA5_1940_2023.nc,0.0003590070299680689,1.6719198315938244,0.7675901790273252,1.3809791718040292,,2.772922,3.3394084,0.8266496,0.016964726,8.037204,44.443855,-414.74026,166.2607
65,576286.8626367882,seasonal_calving_id_2_1900_2025.nc,9.512076325451486e-05,MAR3.9_NorESM1-M_rcp85_ocean_1960-2100_v4.nc,HIRHAM5-monthly-ERA5_1975_2021.nc,0.0003453954174027561,1.4456746423860456,0.3836581565283355,1.5430825827187098,,2.577689,3.2705054,0.8151909,0.020199053,5.2132726,43.27571,-309.54514,261.9851
66,426793.67287963175,seasonal_calving_id_3_1900_2025.nc,0.00011496943653379418,MAR3.9_MIROC-ESM-CHEM_rcp26_ocean_1960-2100_v4.nc,HIRHAM5-monthly-ERA5_1975_2021.nc,0.00024038603345345592,1.4156537113887149,0.3466370057589624,1.6485866861583864,pism_g450m_frontretreat_calfin_1972_2019.nc,2.545376,3.3549502,0.8047936,0.017023582,6.601361,41.81567,-361.35242,228.06602
67,530963.3870356097,seasonal_calving_id_2_1900_2025.nc,0.00010710990963713362,MAR3.9_UKESM1-CM6_ssp585_ocean_1960-2100_v4.nc,HIRHAM5-monthly-ERA5_1975_2021.nc,0.0002787952080320358,1.2027408278868292,0.8347566960648429,1.701196451575964,pism_g450m_frontretreat_calfin_1972_2019.nc,2.1995258,3.3370936,0.76043767,0.022193514,7.5357537,41.409973,-365.45068,443.7033
68,451312.54399269586,seasonal_calving_id_3_1900_2025.nc,7.913480085973617e-05,MAR3.9_HadGEM2-ES_rcp85_ocean_1960-2100_v4.nc,RACMO2.3p2_ERA5_FGRN055_1940_2023.nc,0.0002488185135850463,1.5983085551496279,0.8408274423306215,1.5339968200897003,,2.9918368,3.3102677,0.6455677,0.02072461,9.798944,40.95872,-418.80557,383.75867
69,583240.1633783337,seasonal_calving_id_0_1900_2025.nc,0.0001081852809422346,MAR3.9_CNRM-ESM2_ssp585_ocean_1960-2100_v4.nc,MARv3.14-monthly-ERA5_1940_2023.nc,0.0003099250429725812,1.0715227019969424,0.5371368117886615,1.2503933465982953,,2.8068326,3.2709107,0.74426526,0.021472579,7.5473785,41.08246,-292.29333,302.7926
70,639653.0286873447,seasonal_calving_id_0_1900_2025.nc,0.00013287976421636863,MAR3.9_UKESM1-CM6_ssp585_ocean_1960-2100_v4.nc,HIRHAM5-monthly-ERA5_1975_2021.nc,0.0003041965155740195,1.2626351771486741,0.6656326624458571,1.350255500563508,pism_g450m_frontretreat_calfin_1972_2019.nc,2.2530339,3.3001907,0.692846,0.016986856,6.1507835,41.359795,-448.55215,281.59952
71,569765.5216496359,seasonal_calving_id_0_1900_2025.nc,9.200363935363982e-05,MAR3.9_CSIRO-Mk3.6_rcp85_ocean_1960-2100_v4.nc,HIRHAM5-monthly-ERA5_1975_2021.nc,0.00033075065054025284,1.501799143413526,0.4400629113344513,1.1930378824700028,pism_g450m_frontretreat_calfin_1972_2019.nc,2.2895632,3.2930949,0.771431,0.018317414,8.099268,40.903633,-376.22388,298.83957
72,496150.4973941535,seasonal_calving_id_2_1900_2025.nc,9.360229787223308e-05,MAR3.9_MIROC-ESM-CHEM_rcp26_ocean_1960-2100_v4.nc,MARv3.14-monthly-ERA5_1940_2023.nc,0.00032368859955883404,1.017730365754737,0.6420616276860489,1.7297729668190234,,2.4732208,3.3065581,0.60357434,0.017874569,5.678812,41.79261,-440.14282,227.0165
73,408755.6219723849,seasonal_calving_id_1_1900_2025.nc,0.0001268494891474443,MAR3.9_IPSL-CM5-MR_rcp85_ocean_1960-2100_v4.nc,RACMO2.3p2_ERA5_FGRN055_1940_2023.nc,0.00024315296096806378,1.3477245668541054,0.4496927429288644,1.229988615376171,,2.0996213,3.3059633,0.79461277,0.019398281,5.6290884,43.08277,-350.2878,329.93777
74,403920.40928199625,seasonal_calving_id_4_1900_2025.nc,9.757679103334576e-05,MAR3.9_CNRM-ESM2_ssp585_ocean_1960-2100_v4.nc,MARv3.14-monthly-ERA5_1940_2023.nc,0.0003546953289342097,1.6304811086048896,0.41354455746382635,1.4152725623342934,,2.8649492,3.2595725,0.9181973,0.023952834,6.7924013,40.99006,-200.48474,327.54132
75,546253.9279990229,seasonal_calving_id_1_1900_2025.nc,8.685604448040662e-05,MAR3.9_CSIRO-Mk3.6_rcp85_ocean_1960-2100_v4.nc,MARv3.14-monthly-ERA5_1940_2023.nc,0.000275067286859755,1.2538099073724767,0.46963372366065087,1.5097833168204557,pism_g450m_frontretreat_calfin_1972_2019.nc,2.6882243,3.2997177,0.55310565,0.017281346,5.6355987,44.32077,-511.00012,271.44064
76,647988.4540447854,seasonal_calving_id_2_1900_2025.nc,0.00012176264620003329,MAR3.9_HadGEM2-ES_rcp85_ocean_1960-2100_v4.nc,MARv3.14-monthly-ERA5_1940_2023.nc,0.00026606925989843726,1.1025278538586312,0.7860532462044767,1.2581113543342979,pism_g450m_frontretreat_calfin_1972_2019.nc,2.3146021,3.291291,0.8243112,0.024542376,7.6695366,40.723103,-282.88126,420.52243
77,612859.6070360804,seasonal_calving_id_1_1900_2025.nc,8.966648637919684e-05,MAR3.9_HadGEM2-ES_rcp85_ocean_1960-2100_v4.nc,MARv3.14-monthly-ERA5_1940_2023.nc,0.0002967903946234688,1.3632835655101783,0.6287120490189422,1.6691284303390987,,2.7605066,3.3600223,0.89954257,0.019125644,6.0965476,43.902008,-408.94724,211.66542
78,551756.6955976665,seasonal_calving_id_0_1900_2025.nc,0.00014307116046503355,MAR3.9_ACCESS1-3_rcp85_ocean_1960-2100_v4.nc,RACMO2.3p2_ERA5_FGRN055_1940_2023.nc,0.0003348009286286239,1.5375189574531767,0.8464879236076388,1.6012843814111302,,2.3857586,3.3135793,0.78631634,0.01749313,6.2847834,40.967125,-287.67715,221.51572
79,364040.0904408594,seasonal_calving_id_2_1900_2025.nc,9.694421170582342e-05,MAR3.9_CNRM-CM6_ssp126_ocean_1960-2100_v4.nc,HIRHAM5-monthly-ERA5_1975_2021.nc,0.0003152921127407545,1.1297139017042241,0.5804012214234474,1.4243081484588913,,3.0402822,3.3530369,0.7494024,0.024138303,5.1029396,43.665405,-270.79294,213.3473
80,470013.430330409,seasonal_calving_id_0_1900_2025.nc,0.00014697991701816186,MAR3.9_CSIRO-Mk3.6_rcp85_ocean_1960-2100_v4.nc,MARv3.14-monthly-ERA5_1940_2023.nc,0.0003092389837621118,1.167462375280413,0.7213150892621573,1.6744933261578934,pism_g450m_frontretreat_calfin_1972_2019.nc,2.7890947,3.2982762,0.8282399,0.020240596,6.696186,40.850502,-286.69635,156.46355
81,609124.5002164415,seasonal_calving_id_1_1900_2025.nc,7.955913209084056e-05,MAR3.9_CNRM-CM6_ssp126_ocean_1960-2100_v4.nc,HIRHAM5-monthly-ERA5_1975_2021.nc,0.00030113926634969704,1.5864317912710346,0.5211918380012388,1.7741255299524572,pism_g450m_frontretreat_calfin_1972_2019.nc,2.2647812,3.3031993,0.75043243,0.015606508,8.858496,40.292683,-387.18127,131.97891
82,441557.0833500045,seasonal_calving_id_3_1900_2025.nc,8.441173243045606e-05,MAR3.9_MIROC-ESM-CHEM_rcp26_ocean_1960-2100_v4.nc,HIRHAM5-monthly-ERA5_1975_2021.nc,0.0002481038387609941,1.5148924469251295,0.7792213180632885,1.7064618984598248,pism_g450m_frontretreat_calfin_1972_2019.nc,2.7926877,3.3140228,0.7346776,0.021362253,5.0781794,43.108784,-528.037,468.56985
83,466361.2486706893,seasonal_calving_id_1_1900_2025.nc,0.0001362933250788445,MAR3.9_CNRM-ESM2_ssp585_ocean_1960-2100_v4.nc,MARv3.14-monthly-ERA5_1940_2023.nc,0.00026925392041942043,1.424247727461929,0.4163014660566652,1.4669694663821184,,2.407104,3.3184812,0.6277478,0.017704768,9.623698,40.624878,-420.67667,342.9823
84,429103.86745014036,seasonal_calving_id_2_1900_2025.nc,0.00011799278975555065,MAR3.9_NorESM1-M_rcp85_ocean_1960-2100_v4.nc,RACMO2.3p2_ERA5_FGRN055_1940_2023.nc,0.00027732163147325007,1.5607270518268201,0.680018129685871,1.3797496078026956,pism_g450m_frontretreat_calfin_1972_2019.nc,2.2627654,3.3159235,0.7960381,0.01871146,6.019092,42.588238,-344.34375,172.69293
85,368998.1841768073,seasonal_calving_id_2_1900_2025.nc,0.00012055397129656719,MAR3.9_CNRM-ESM2_ssp585_ocean_1960-2100_v4.nc,MARv3.14-monthly-ERA5_1940_2023.nc,0.00026225791110166184,1.331966473590258,0.37282985448704276,1.370089318488947,pism_g450m_frontretreat_calfin_1972_2019.nc,2.282803,3.2954686,0.6455651,0.014992415,7.74842,44.11499,-375.60352,191.4269
86,606500.2166797996,seasonal_calving_id_2_1900_2025.nc,0.00012627463904936803,MAR3.9_CSIRO-Mk3.6_rcp85_ocean_1960-2100_v4.nc,RACMO2.3p2_ERA5_FGRN055_1940_2023.nc,0.00029520735322088176,1.2737157881750922,0.6791805787590057,1.7616323054130414,,2.1809359,3.3645835,0.82009894,0.01694991,7.2754564,44.513344,-348.23474,303.53192
87,468494.26004009234,seasonal_calving_id_4_1900_2025.nc,0.00011126827608282257,MAR3.9_CSIRO-Mk3.6_rcp85_ocean_1960-2100_v4.nc,HIRHAM5-monthly-ERA5_1975_2021.nc,0.00031848481925148036,1.6470227415334535,0.7065644652678758,1.2414150890783586,,2.4981503,3.257828,0.7973531,0.014725438,5.6405735,42.68903,-344.31256,88.35036
88,477326.90431847604,seasonal_calving_id_3_1900_2025.nc,0.00013428937313738037,MAR3.9_CNRM-ESM2_ssp585_ocean_1960-2100_v4.nc,HIRHAM5-monthly-ERA5_1975_2021.nc,0.000251984800703059,1.4622257545513073,0.5469623026279488,1.4858145007158092,pism_g450m_frontretreat_calfin_1972_2019.nc,2.826933,3.2613285,0.752773,0.017613886,9.31578,43.99163,-485.11285,370.85602
89,597555.814359112,seasonal_calving_id_0_1900_2025.nc,0.0001496841597607828,MAR3.9_MIROC-ESM-CHEM_rcp26_ocean_1960-2100_v4.nc,RACMO2.3p2_ERA5_FGRN055_1940_2023.nc,0.00033853236815528263,1.5786981730422696,0.8050796533285041,1.1148548156074722,,2.5602484,3.2753465,0.7162923,0.023598485,5.824278,43.28405,-305.99347,472.66235
90,497017.2549913869,seasonal_calving_id_4_1900_2025.nc,0.0001238315705502232,MAR3.9_NorESM1-M_rcp85_ocean_1960-2100_v4.nc,RACMO2.3p2_ERA5_FGRN055_1940_2023.nc,0.000350939851842538,1.5739717997590092,0.4579203464096383,1.3523290773090013,,3.223108,3.3173435,0.8610088,0.015748568,5.386635,43.619408,-344.4103,75.64903
91,357427.3546042862,seasonal_calving_id_1_1900_2025.nc,0.0001450625298740736,MAR3.9_NorESM1-M_rcp85_ocean_1960-2100_v4.nc,HIRHAM5-monthly-ERA5_1975_2021.nc,0.0003253760268760206,1.1903831830291445,0.47133180440459765,1.1766701709158836,pism_g450m_frontretreat_calfin_1972_2019.nc,3.0705771,3.312766,0.70036364,0.018915582,6.302728,43.45302,-432.20947,242.8953
92,588840.5977525883,seasonal_calving_id_1_1900_2025.nc,0.00011088793900416197,MAR3.9_ACCESS1-3_rcp85_ocean_1960-2100_v4.nc,HIRHAM5-monthly-ERA5_1975_2021.nc,0.0002760026945003593,1.2056201575908951,0.6465829742751035,1.1110254495050744,,3.2445035,3.2701235,0.76338774,0.022273019,6.3998766,42.70788,-314.7519,396.5384
93,566622.5219861876,seasonal_calving_id_3_1900_2025.nc,0.00012972791327111845,MAR3.9_IPSL-CM5-MR_rcp85_ocean_1960-2100_v4.nc,HIRHAM5-monthly-ERA5_1975_2021.nc,0.00031926519354253286,1.146364272148381,0.6939933568896532,1.5700750693288765,pism_g450m_frontretreat_calfin_1972_2019.nc,2.2290392,3.3669045,0.87087667,0.015152365,12.927767,43.042522,-458.4427,548.3208
94,435521.2863127908,seasonal_calving_id_2_1900_2025.nc,0.00010430576908749018,MAR3.9_CNRM-CM6_ssp126_ocean_1960-2100_v4.nc,MARv3.14-monthly-ERA5_1940_2023.nc,0.0002892355274184605,1.18289831874155,0.31250554601489133,1.5782795197613795,pism_g450m_frontretreat_calfin_1972_2019.nc,2.402202,3.3190348,0.7301268,0.018969651,10.750645,40.701015,-254.36182,117.79588
95,536506.3933650418,seasonal_calving_id_1_1900_2025.nc,0.00011252431187995835,MAR3.9_UKESM1-CM6_ssp585_ocean_1960-2100_v4.nc,HIRHAM5-monthly-ERA5_1975_2021.nc,0.0003110688218230998,1.3871645483202664,0.6015671250056859,1.4544262854647685,,2.9625254,3.315545,0.6570584,0.017082458,9.601718,42.85795,-418.22168,275.12582
96,456365.9978977837,seasonal_calving_id_0_1900_2025.nc,7.648903968108743e-05,MAR3.9_CNRM-CM6_ssp126_ocean_1960-2100_v4.nc,MARv3.14-monthly-ERA5_1940_2023.nc,0.0002466105150108599,1.251857313220826,0.3434288837652485,1.4990858429311213,,2.2107792,3.2821176,0.7777076,0.015236167,6.97611,43.12965,-325.49347,193.33449
97,398463.2961619704,seasonal_calving_id_3_1900_2025.nc,0.00013776295746514595,MAR3.9_ACCESS1-3_rcp85_ocean_1960-2100_v4.nc,MARv3.14-monthly-ERA5_1940_2023.nc,0.0002986586391019232,1.4381161953405093,0.5926720878800784,1.5960935621014103,pism_g450m_frontretreat_calfin_1972_2019.nc,2.7948763,3.2751372,0.75906557,0.025518531,5.617316,40.90652,-267.96893,301.63916
98,437709.98879281414,seasonal_calving_id_2_1900_2025.nc,0.0001172837155739504,MAR3.9_CNRM-CM6_ssp126_ocean_1960-2100_v4.nc,RACMO2.3p2_ERA5_FGRN055_1940_2023.nc,0.00035266938495287324,1.6979697278243338,0.7740787020193192,1.750801459880345,pism_g450m_frontretreat_calfin_1972_2019.nc,2.6780462,3.3853593,0.83491653,0.017046072,6.8582144,43.141815,-543.8419,343.10004
99,448339.88630148687,seasonal_calving_id_3_1900_2025.nc,7.532239631386242e-05,MAR3.9_CNRM-ESM2_ssp585_ocean_1960-2100_v4.nc,RACMO2.3p2_ERA5_FGRN055_1940_2023.nc,0.0002729606529072276,1.097065102073355,0.6367386061129408,1.6153420268164362,pism_g450m_frontretreat_calfin_1972_2019.nc,3.10296,3.3045762,0.78684306,0.01966499,6.99339,43.73507,-155.94664,121.90132
