id,calving.vonmises_calving.sigma_max,calving.rate_scaling.file,ocean.th.gamma_T,ocean_file,climate_file,frontal_melt.routing.parameter_a,frontal_melt.routing.parameter_b,frontal_melt.routing.power_alpha,frontal_melt.routing.power_beta,stress_balance.sia.enhancement_factor,stress_balance.ssa.Glen_exponent,basal_resistance.pseudo_plastic.q,basal_yield_stress.mohr_coulomb.till_effective_fraction_overburden,basal_yield_stress.mohr_coulomb.topg_to_phi.phi_min,basal_yield_stress.mohr_coulomb.topg_to_phi.phi_max,basal_yield_stress.mohr_coulomb.topg_to_phi.topg_min,basal_yield_stress.mohr_coulomb.topg_to_phi.topg_max
0,529050.5101121103,seasonal_calving_id_4_1975_2025.nc,9.299468156346614e-05,MAR3.9_CNRM-CM6_ssp585_ocean_1960-2100_v4.nc,MARv3.14-monthly-ERA5-1975_2023.nc,0.0002721063594202429,1.5253432706009145,0.42402796445911095,1.7212123865464382,2.6667023,3.2906048,0.7410629,0.013405825,6.645444,43.18966,-394.35522,175.2991
1,465536.6774995257,seasonal_calving_id_7_1975_2025.nc,0.00012794139481548712,MAR3.9_MIROC-ESM-CHEM_rcp85_ocean_1960-2100_v4.nc,MARv3.14-monthly-ERA5-1975_2023.nc,0.00028302904727688295,1.4458914978304171,0.4669420069301537,1.2062066388983739,2.5670338,3.3518434,0.76657754,0.022232149,7.57684,41.391827,-551.30084,560.55865
2,589675.7931965954,seasonal_calving_id_2_1975_2025.nc,0.00010884943402056351,MAR3.9_UKESM1-CM6_ssp585_ocean_1960-2100_v4.nc,MARv3.14-monthly-ERA5-1975_2023.nc,0.00024785202661035884,1.3848775669801017,0.6049451267919841,1.6976467392492598,2.7199225,3.362908,0.7852977,0.018259663,8.639884,44.226223,-337.996,330.09674
3,404005.0789869136,seasonal_calving_id_3_1975_2025.nc,0.00014290932341474695,MAR3.9_NorESM1-M_rcp85_ocean_1960-2100_v4.nc,DMI-HIRHAM5_ERA_1975_2021_EPSG3413_4500M_MM.nc,0.00029532149700262,1.0231958902126765,0.41899822992731245,2.1044714866426375,3.025255,3.3298178,0.7203545,0.016616499,6.3497615,42.632114,-410.83646,173.79225
4,534066.884223089,seasonal_calving_id_6_1975_2025.nc,0.0001364247548266968,MAR3.9_CNRM-ESM2_ssp585_ocean_1960-2100_v4.nc,MARv3.14-monthly-ERA5-1975_2023.nc,0.00035702396343932196,1.6556681622357852,0.5654655774257831,2.050325472445322,2.7593653,3.2988787,0.6634406,0.018577376,13.05349,41.79186,-450.91916,494.04593
5,512306.0128788728,seasonal_calving_id_1_1975_2025.nc,0.00010692350348979579,MAR3.9_CNRM-CM6_ssp585_ocean_1960-2100_v4.nc,MARv3.14-monthly-ERA5-1975_2023.nc,0.00033539218067998015,1.209449127992163,0.681037280671916,2.6771732333435305,2.1352544,3.295825,0.73663515,0.013884018,6.6158924,44.150192,-463.83105,197.93407
6,450852.36492426577,seasonal_calving_id_4_1975_2025.nc,0.00013326902506155498,MAR3.9_MIROC-ESM-CHEM_rcp26_ocean_1960-2100_v4.nc,DMI-HIRHAM5_ERA_1975_2021_EPSG3413_4500M_MM.nc,0.00029831453140674255,1.6359738723112769,0.5271146060161226,1.4715999066903493,3.1459293,3.3189197,0.61614484,0.023503555,8.582264,43.13094,-234.19614,139.70027
7,598460.588498556,seasonal_calving_id_5_1975_2025.nc,8.238170138322028e-05,MAR3.9_IPSL-CM5-MR_rcp85_ocean_1960-2100_v4.nc,DMI-HIRHAM5_ERA_1975_2021_EPSG3413_4500M_MM.nc,0.0003512864946998513,1.0429253313022147,0.4374112026774347,1.551429242437408,2.1502185,3.2750802,0.7793166,0.013858985,6.007353,43.423187,-405.72943,104.376236
8,428930.8612978474,seasonal_calving_id_5_1975_2025.nc,0.00014784453924700924,MAR3.9_UKESM1-CM6_ssp585_ocean_1960-2100_v4.nc,MARv3.14-monthly-ERA5-1975_2023.nc,0.00034882591203492695,1.476010335258359,0.4322518792604438,2.4881610586914444,2.563337,3.3914466,0.7563099,0.016863054,6.4486356,42.762154,-524.702,361.77332
9,626000.570371568,seasonal_calving_id_5_1975_2025.nc,0.0001285973572990367,MAR3.9_UKESM1-CM6_ssp585_ocean_1960-2100_v4.nc,MARv3.14-monthly-ERA5-1975_2023.nc,0.0002857270930534644,1.0755229426317505,0.6984557576028139,1.4442256563337503,2.6377378,3.2795415,0.75186855,0.020492714,5.1096315,42.286507,-348.54028,325.21307
10,583867.97565856,seasonal_calving_id_6_1975_2025.nc,0.00010766112188689776,MAR3.9_CNRM-ESM2_ssp585_ocean_1960-2100_v4.nc,MARv3.14-monthly-ERA5-1975_2023.nc,0.0002443939420134341,1.6894006225265006,0.6794939265829341,2.2417261114957414,2.791764,3.2990768,0.70293075,0.018134153,5.1219025,41.9113,-520.15186,79.18418
11,462100.2377062823,seasonal_calving_id_7_1975_2025.nc,0.00011929618563478718,MAR3.9_CNRM-CM6_ssp126_ocean_1960-2100_v4.nc,DMI-HIRHAM5_ERA_1975_2021_EPSG3413_4500M_MM.nc,0.0003128550138484901,1.3137597235280984,0.5785656867432661,2.063069103180095,2.4495554,3.3116145,0.7242162,0.01561122,8.701206,41.968266,-423.6416,205.28458
12,622924.6814629777,seasonal_calving_id_2_1975_2025.nc,0.00011182998883205831,MAR3.9_MIROC-ESM-CHEM_rcp26_ocean_1960-2100_v4.nc,MARv3.14-monthly-ERA5-1975_2023.nc,0.0003276042086876787,1.39882384629243,0.5345343345939495,2.19140401705329,2.0811224,3.319662,0.67925525,0.014841825,7.1342416,43.69507,-445.38812,182.5881
13,614984.8290392861,seasonal_calving_id_7_1975_2025.nc,0.00014039353649050236,MAR3.9_CNRM-CM6_ssp126_ocean_1960-2100_v4.nc,DMI-HIRHAM5_ERA_1975_2021_EPSG3413_4500M_MM.nc,0.00035958230578584055,1.4899902483183771,0.35670987140753596,1.5890564162695469,2.3302958,3.3708057,0.7127191,0.019562604,10.705609,44.47657,-396.3603,748.5198
14,508664.70671240694,seasonal_calving_id_5_1975_2025.nc,9.302660961603162e-05,MAR3.9_HadGEM2-ES_rcp85_ocean_1960-2100_v4.nc,DMI-HIRHAM5_ERA_1975_2021_EPSG3413_4500M_MM.nc,0.00028433827985004426,1.5609664582203946,0.36621713341403067,2.004647437621508,2.6525311,3.3003254,0.6706735,0.024976023,7.5554376,43.595627,-506.55865,856.91583
15,634440.9710828471,seasonal_calving_id_6_1975_2025.nc,0.00011360599541576619,MAR3.9_MIROC-ESM-CHEM_rcp26_ocean_1960-2100_v4.nc,DMI-HIRHAM5_ERA_1975_2021_EPSG3413_4500M_MM.nc,0.0003333149284090123,1.5789700756586997,0.554930797977192,1.889903285906175,2.3542774,3.2300398,0.7818605,0.02027909,7.0163565,42.835102,-461.25742,332.57184
16,547800.9644113816,seasonal_calving_id_1_1975_2025.nc,0.00013797526339413295,MAR3.9_ACCESS1-3_rcp85_ocean_1960-2100_v4.nc,MARv3.14-monthly-ERA5-1975_2023.nc,0.0002582328593960809,1.2578270594121876,0.6164616286355237,2.6627352340578394,2.6174858,3.3489456,0.7484572,0.022778457,5.259248,42.326504,-654.26,704.05554
17,398701.61049366277,seasonal_calving_id_6_1975_2025.nc,0.000123247303682002,MAR3.9_CNRM-CM6_ssp126_ocean_1960-2100_v4.nc,DMI-HIRHAM5_ERA_1975_2021_EPSG3413_4500M_MM.nc,0.000292225199286847,1.3271414929178693,0.4970523532821007,1.360065186126054,2.5237126,3.3292038,0.6640221,0.018200982,6.73848,43.59604,-431.1946,264.79434
18,600988.7908101046,seasonal_calving_id_7_1975_2025.nc,0.00014596369676516958,MAR3.9_MIROC-ESM-CHEM_rcp85_ocean_1960-2100_v4.nc,DMI-HIRHAM5_ERA_1975_2021_EPSG3413_4500M_MM.nc,0.0003036338804382326,1.5405737721056845,0.3713371425862216,2.4462523499188418,1.9963894,3.2735918,0.660139,0.015382278,8.314332,41.25584,-451.68344,225.77695
19,552074.4783675552,seasonal_calving_id_1_1975_2025.nc,0.00010542982919154015,MAR3.9_HadGEM2-ES_rcp85_ocean_1960-2100_v4.nc,DMI-HIRHAM5_ERA_1975_2021_EPSG3413_4500M_MM.nc,0.0003019839941351327,1.1085868703025488,0.6487403255683812,2.5557881160513896,2.526362,3.3014767,0.83677155,0.018653253,6.6936817,43.56248,-378.92255,299.5996
20,390330.46365096245,seasonal_calving_id_1_1975_2025.nc,0.0001394812386068603,MAR3.9_CNRM-ESM2_ssp585_ocean_1960-2100_v4.nc,MARv3.14-monthly-ERA5-1975_2023.nc,0.00028700353127590725,1.5698154827753452,0.5816245772657143,1.3514029106666283,3.1700835,3.3173566,0.66149086,0.019084979,6.856793,43.106445,-364.69653,224.45137
21,477714.4882326872,seasonal_calving_id_0_1975_2025.nc,7.712660040402989e-05,MAR3.9_NorESM1-M_rcp85_ocean_1960-2100_v4.nc,DMI-HIRHAM5_ERA_1975_2021_EPSG3413_4500M_MM.nc,0.0003091348304256463,1.3522578326041677,0.6743884737936878,1.5616502173937419,3.0196896,3.3238053,0.6745899,0.020861417,8.01378,43.841957,-419.65958,445.86078
22,482708.603254698,seasonal_calving_id_3_1975_2025.nc,0.00014705532047339253,MAR3.9_NorESM1-M_rcp85_ocean_1960-2100_v4.nc,DMI-HIRHAM5_ERA_1975_2021_EPSG3413_4500M_MM.nc,0.0003400150989595329,1.549508587383839,0.30056156136135187,1.4341452804822579,2.4057155,3.261483,0.7532064,0.02046996,5.698773,41.554417,-353.5974,340.32346
23,631084.4335023421,seasonal_calving_id_4_1975_2025.nc,8.029384192029886e-05,MAR3.9_CNRM-ESM2_ssp585_ocean_1960-2100_v4.nc,MARv3.14-monthly-ERA5-1975_2023.nc,0.0002690130491452874,1.1910617320660704,0.313114276410914,1.141010193044207,2.5730042,3.2975569,0.9321009,0.019454751,5.06395,41.202534,-308.5217,128.98723
24,563282.7505823671,seasonal_calving_id_1_1975_2025.nc,0.00011117420638846794,MAR3.9_MIROC-ESM-CHEM_rcp85_ocean_1960-2100_v4.nc,MARv3.14-monthly-ERA5-1975_2023.nc,0.0003060169688051026,1.3387256237139071,0.5169490224173983,2.3243683094117227,2.330257,3.2980447,0.7585883,0.016382288,7.92587,42.17632,-397.44977,265.18484
25,505190.1879548365,seasonal_calving_id_1_1975_2025.nc,7.969133836031842e-05,MAR3.9_CNRM-ESM2_ssp585_ocean_1960-2100_v4.nc,DMI-HIRHAM5_ERA_1975_2021_EPSG3413_4500M_MM.nc,0.00033903882001766223,1.1528900992979856,0.45528413454450856,1.9675829738841077,2.8487556,3.315433,0.6016885,0.019898957,10.29036,41.40622,-348.27008,235.01537
26,537694.6289548966,seasonal_calving_id_6_1975_2025.nc,9.148460979085799e-05,MAR3.9_CNRM-ESM2_ssp585_ocean_1960-2100_v4.nc,DMI-HIRHAM5_ERA_1975_2021_EPSG3413_4500M_MM.nc,0.0003577916305086779,1.2733122890018282,0.40727187145507204,1.6154748885564678,2.7830758,3.2054152,0.8226941,0.019841474,7.364737,44.33293,-293.0643,294.41953
27,423027.83487600775,seasonal_calving_id_3_1975_2025.nc,0.00010808148692038887,MAR3.9_HadGEM2-ES_rcp85_ocean_1960-2100_v4.nc,DMI-HIRHAM5_ERA_1975_2021_EPSG3413_4500M_MM.nc,0.0003261292016621156,1.0034797575860208,0.6240026423666354,1.7788794531969192,2.8180509,3.3176684,0.85903597,0.02032335,6.654882,42.824093,-343.12494,308.30933
28,496306.9701395489,seasonal_calving_id_0_1975_2025.nc,9.175499812653706e-05,MAR3.9_MIROC-ESM-CHEM_rcp85_ocean_1960-2100_v4.nc,DMI-HIRHAM5_ERA_1975_2021_EPSG3413_4500M_MM.nc,0.0003300900239175454,1.5189065829954664,0.42980562257824795,2.1469236343483282,3.0369222,3.27097,0.5888461,0.026438095,8.286068,42.213882,-278.42053,299.32175
29,586152.5520092284,seasonal_calving_id_6_1975_2025.nc,0.00011733959372447819,MAR3.9_CSIRO-Mk3.6_rcp85_ocean_1960-2100_v4.nc,MARv3.14-monthly-ERA5-1975_2023.nc,0.0002522621421923069,1.0787735356524824,0.5569610480099817,2.277727908458183,2.975651,3.2978833,0.68233615,0.021811556,7.813837,41.016613,-325.56677,162.03668
30,354822.5594646124,seasonal_calving_id_4_1975_2025.nc,0.0001216796038043961,MAR3.9_ACCESS1-3_rcp85_ocean_1960-2100_v4.nc,MARv3.14-monthly-ERA5-1975_2023.nc,0.0002684291632164553,1.4221821725856192,0.5205665673170338,2.5316727947048987,2.9117897,3.2711573,0.79991174,0.01854606,5.323602,42.4771,-425.19504,359.75473
31,567785.7609422125,seasonal_calving_id_3_1975_2025.nc,9.531006489338513e-05,MAR3.9_CSIRO-Mk3.6_rcp85_ocean_1960-2100_v4.nc,DMI-HIRHAM5_ERA_1975_2021_EPSG3413_4500M_MM.nc,0.0003423818204787756,1.4985753059641065,0.49414778431596407,1.936013196531418,2.5279593,3.3196564,0.631323,0.016893294,6.220396,40.975094,-583.5791,188.70837
32,492132.8569520913,seasonal_calving_id_2_1975_2025.nc,0.00011891251673353712,MAR3.9_ACCESS1-3_rcp85_ocean_1960-2100_v4.nc,DMI-HIRHAM5_ERA_1975_2021_EPSG3413_4500M_MM.nc,0.0003192378268526362,1.5974037441883622,0.6448642051313207,2.7681073918907884,2.5271897,3.3310971,0.6922591,0.017067838,9.554213,43.221565,-426.67914,332.72263
33,559135.0922033689,seasonal_calving_id_5_1975_2025.nc,0.00011594711848292582,MAR3.9_MIROC-ESM-CHEM_rcp26_ocean_1960-2100_v4.nc,DMI-HIRHAM5_ERA_1975_2021_EPSG3413_4500M_MM.nc,0.0003238905599419068,1.4198084810760707,0.5739005967029146,1.1938405022570702,2.3568006,3.287162,0.80838966,0.018804442,5.426399,43.019794,-304.25687,233.97812
34,542493.7634606723,seasonal_calving_id_3_1975_2025.nc,0.0001261903027613849,MAR3.9_HadGEM2-ES_rcp85_ocean_1960-2100_v4.nc,DMI-HIRHAM5_ERA_1975_2021_EPSG3413_4500M_MM.nc,0.00025440233028689607,1.0076576537290658,0.37530406356556456,2.3998079355133557,2.2099729,3.2704701,0.61116034,0.014854271,7.7368903,42.24481,-399.46912,135.49258
35,456883.5946874484,seasonal_calving_id_7_1975_2025.nc,0.0001366498673193845,MAR3.9_ACCESS1-3_rcp85_ocean_1960-2100_v4.nc,DMI-HIRHAM5_ERA_1975_2021_EPSG3413_4500M_MM.nc,0.00032687696007543455,1.6180828807379881,0.4489128261251488,2.071382169789638,2.2831836,3.3232741,0.7068293,0.015197187,6.3088775,43.023537,-612.04407,405.66696
36,435174.8664713521,seasonal_calving_id_0_1975_2025.nc,8.417461685497426e-05,MAR3.9_CSIRO-Mk3.6_rcp85_ocean_1960-2100_v4.nc,MARv3.14-monthly-ERA5-1975_2023.nc,0.0002600103476168293,1.4950148806272425,0.6620325926980022,2.4987752716345626,2.5428822,3.24215,0.8070503,0.01587007,8.342925,43.710503,-304.0784,150.50269
37,432447.67260314163,seasonal_calving_id_1_1975_2025.nc,9.639305691867314e-05,MAR3.9_CNRM-CM6_ssp126_ocean_1960-2100_v4.nc,DMI-HIRHAM5_ERA_1975_2021_EPSG3413_4500M_MM.nc,0.00025028038413521,1.3472283670049472,0.46261813691853765,2.35162878288022,2.8373399,3.313787,0.7152769,0.019106489,6.4165716,44.30055,-640.5792,640.4664
38,556043.690633562,seasonal_calving_id_0_1975_2025.nc,0.00012580946629377863,MAR3.9_MIROC-ESM-CHEM_rcp26_ocean_1960-2100_v4.nc,DMI-HIRHAM5_ERA_1975_2021_EPSG3413_4500M_MM.nc,0.00030587645315076985,1.6783698602721193,0.38284353490083056,1.8335114471308807,2.3406806,3.297622,0.83894753,0.014791697,6.1411915,43.004326,-371.03955,73.17015
39,550919.4057932614,seasonal_calving_id_0_1975_2025.nc,0.00012677570877845016,MAR3.9_NorESM1-M_rcp85_ocean_1960-2100_v4.nc,DMI-HIRHAM5_ERA_1975_2021_EPSG3413_4500M_MM.nc,0.0003347643603572701,1.4703831216509275,0.3862004916939771,2.3162218939182333,2.631255,3.316029,0.7382449,0.016638434,5.354204,42.354218,-387.26102,196.76395
40,618068.778086737,seasonal_calving_id_2_1975_2025.nc,8.307426969314992e-05,MAR3.9_CSIRO-Mk3.6_rcp85_ocean_1960-2100_v4.nc,DMI-HIRHAM5_ERA_1975_2021_EPSG3413_4500M_MM.nc,0.00027453816921846607,1.6707874908602536,0.5296395975317738,2.089172160824327,2.773238,3.2730863,0.6975168,0.017722948,6.907345,42.91661,-403.93243,282.65762
41,411473.88011725916,seasonal_calving_id_4_1975_2025.nc,0.00013378806277940413,MAR3.9_UKESM1-CM6_ssp585_ocean_1960-2100_v4.nc,DMI-HIRHAM5_ERA_1975_2021_EPSG3413_4500M_MM.nc,0.0003140828536648925,1.427403055234836,0.4795701962677843,2.786779929024023,2.6901765,3.329822,0.7696257,0.014322723,5.0975356,44.04529,-462.13904,174.72806
42,604605.7453257868,seasonal_calving_id_5_1975_2025.nc,0.00013950206694996815,MAR3.9_ACCESS1-3_rcp85_ocean_1960-2100_v4.nc,MARv3.14-monthly-ERA5-1975_2023.nc,0.00033815000730508195,1.0959970477415717,0.3098525114745764,1.9649601068893885,2.9665797,3.3081932,0.6407363,0.01863969,9.229529,44.869785,-378.3677,366.9287
43,571121.942607712,seasonal_calving_id_3_1975_2025.nc,0.00013032348669113515,MAR3.9_IPSL-CM5-MR_rcp85_ocean_1960-2100_v4.nc,MARv3.14-monthly-ERA5-1975_2023.nc,0.00025739078417329555,1.6151583252913104,0.3349000185495649,1.2705578748571889,2.6553762,3.3450093,0.90968955,0.028713433,6.9954515,40.763344,-114.68428,198.76999
44,523556.4797011982,seasonal_calving_id_2_1975_2025.nc,9.385826546065099e-05,MAR3.9_CNRM-CM6_ssp126_ocean_1960-2100_v4.nc,DMI-HIRHAM5_ERA_1975_2021_EPSG3413_4500M_MM.nc,0.0003146235035456492,1.5934081073239992,0.6900340380036012,2.1672645938020105,2.7364917,3.3029385,0.62706184,0.022425132,8.514697,43.05826,-365.82346,337.2829
45,524769.7880073675,seasonal_calving_id_0_1975_2025.nc,0.00010478380200377394,MAR3.9_UKESM1-CM6_ssp585_ocean_1960-2100_v4.nc,DMI-HIRHAM5_ERA_1975_2021_EPSG3413_4500M_MM.nc,0.00028861861280290324,1.1711601953914976,0.4416471315880139,2.4095929997581345,3.025884,3.2935803,0.871623,0.021493873,7.765132,42.23806,-313.91412,460.415
46,590538.7808485691,seasonal_calving_id_1_1975_2025.nc,0.00010394432910898194,MAR3.9_IPSL-CM5-MR_rcp85_ocean_1960-2100_v4.nc,MARv3.14-monthly-ERA5-1975_2023.nc,0.00035003254067473834,1.373627544636172,0.3265075082057503,2.7012315616170746,2.694051,3.295826,0.6358971,0.017624956,5.625796,43.598892,-529.33954,236.975
47,356601.9004235279,seasonal_calving_id_2_1975_2025.nc,0.00013079444509831085,MAR3.9_CNRM-CM6_ssp126_ocean_1960-2100_v4.nc,DMI-HIRHAM5_ERA_1975_2021_EPSG3413_4500M_MM.nc,0.00024136121703590912,1.2115896279460545,0.5062649217901429,2.1776080121940202,2.9749503,3.378952,0.8044142,0.019900003,11.106341,44.208733,-228.76932,213.5018
48,487532.5066827644,seasonal_calving_id_0_1975_2025.nc,0.0001096283778176612,MAR3.9_ACCESS1-3_rcp85_ocean_1960-2100_v4.nc,DMI-HIRHAM5_ERA_1975_2021_EPSG3413_4500M_MM.nc,0.00026072391604377564,1.4640740202536708,0.5377541724543509,1.4157100526949673,3.1699405,3.2717257,0.6990913,0.025236914,8.199341,43.940884,-320.9199,385.6685
49,468988.97097757657,seasonal_calving_id_0_1975_2025.nc,0.00014511228164809106,MAR3.9_HadGEM2-ES_rcp85_ocean_1960-2100_v4.nc,DMI-HIRHAM5_ERA_1975_2021_EPSG3413_4500M_MM.nc,0.00024565951552294086,1.6495941843681394,0.5680988614449266,1.3149582791082746,2.0059905,3.3315377,0.84427273,0.013077208,5.6508164,41.631893,-298.4606,108.787575
50,530239.6784274906,seasonal_calving_id_7_1975_2025.nc,8.587361887858058e-05,MAR3.9_CNRM-ESM2_ssp585_ocean_1960-2100_v4.nc,MARv3.14-monthly-ERA5-1975_2023.nc,0.0003167312305004271,1.202051741765404,0.6526382129197659,2.5768445703944263,3.0013394,3.3352847,0.7948324,0.019232502,9.514383,41.16358,-318.72284,129.27573
51,575865.3648930078,seasonal_calving_id_5_1975_2025.nc,7.535722157954753e-05,MAR3.9_CNRM-ESM2_ssp585_ocean_1960-2100_v4.nc,MARv3.14-monthly-ERA5-1975_2023.nc,0.00028163957006978546,1.2952152631948841,0.6008090290845598,2.596844463727714,1.996206,3.2778692,0.7276806,0.016929723,8.380043,41.130672,-532.53754,512.4115
52,641891.5472685004,seasonal_calving_id_1_1975_2025.nc,0.00011299237020606877,MAR3.9_UKESM1-CM6_ssp585_ocean_1960-2100_v4.nc,MARv3.14-monthly-ERA5-1975_2023.nc,0.0003082921730155865,1.1347564206731358,0.4729213757807197,2.3653052013916582,2.1582146,3.2586331,0.64347893,0.015498568,8.014969,41.778515,-378.6742,210.59781
53,401830.91761610785,seasonal_calving_id_6_1975_2025.nc,0.0001312641331248837,MAR3.9_NorESM1-M_rcp85_ocean_1960-2100_v4.nc,DMI-HIRHAM5_ERA_1975_2021_EPSG3413_4500M_MM.nc,0.00031704914052314387,1.0697562640240317,0.6096665474358642,2.290297903727677,3.0121691,3.2973468,0.8322816,0.022483231,6.696834,40.599842,-278.53918,350.68762
54,519586.00713913696,seasonal_calving_id_5_1975_2025.nc,0.00014986515333923042,MAR3.9_CNRM-CM6_ssp126_ocean_1960-2100_v4.nc,DMI-HIRHAM5_ERA_1975_2021_EPSG3413_4500M_MM.nc,0.000322342466951241,1.0149963455803135,0.6351942383482264,1.9265324668599826,2.3409483,3.3899896,0.8177996,0.016525824,9.416204,44.30273,-436.2163,295.40778
55,610617.0094417783,seasonal_calving_id_3_1975_2025.nc,7.764783326088718e-05,MAR3.9_IPSL-CM5-MR_rcp85_ocean_1960-2100_v4.nc,MARv3.14-monthly-ERA5-1975_2023.nc,0.0002932293696362812,1.5876158160234048,0.33125288087766114,2.639145566140761,2.9956272,3.321467,0.55014306,0.028404253,9.172589,40.52418,-526.54987,762.55676
56,448660.05636638857,seasonal_calving_id_3_1975_2025.nc,0.00012291376604238658,MAR3.9_MIROC-ESM-CHEM_rcp26_ocean_1960-2100_v4.nc,MARv3.14-monthly-ERA5-1975_2023.nc,0.0003521407120520054,1.1543441136404824,0.3447634842907278,1.493089310980516,2.9168842,3.2647645,0.6713634,0.018662436,5.4742846,42.27495,-273.70862,49.422394
57,416489.4572682618,seasonal_calving_id_2_1975_2025.nc,0.00011845930111417476,MAR3.9_NorESM1-M_rcp85_ocean_1960-2100_v4.nc,MARv3.14-monthly-ERA5-1975_2023.nc,0.0003297369846476277,1.5367601118727494,0.4683863442906093,1.8605066638512133,2.2614896,3.260129,0.74443704,0.0155855715,7.0258064,42.19409,-305.06494,206.68872
58,579123.0875291536,seasonal_calving_id_5_1975_2025.nc,0.00010646771382852508,MAR3.9_UKESM1-CM6_ssp585_ocean_1960-2100_v4.nc,DMI-HIRHAM5_ERA_1975_2021_EPSG3413_4500M_MM.nc,0.0002944382209991796,1.1139660450743272,0.3431333229180662,1.6272188302196406,2.6731162,3.2942412,0.87021244,0.014398323,8.321813,43.049263,-341.53122,159.21254
59,415846.8711992289,seasonal_calving_id_4_1975_2025.nc,8.927935583118487e-05,MAR3.9_IPSL-CM5-MR_rcp85_ocean_1960-2100_v4.nc,MARv3.14-monthly-ERA5-1975_2023.nc,0.0002851594998980975,1.184203104551843,0.5501094436812015,2.44166927678139,2.7215004,3.284808,0.59372073,0.016329305,6.1582584,43.539177,-572.89813,331.8913
60,373322.19107729406,seasonal_calving_id_6_1975_2025.nc,8.343407829236866e-05,MAR3.9_CSIRO-Mk3.6_rcp85_ocean_1960-2100_v4.nc,MARv3.14-monthly-ERA5-1975_2023.nc,0.0002625327308060048,1.391706143850036,0.5116569560195475,1.1206758037818347,2.5914845,3.237055,0.80691755,0.021621393,6.683942,42.92828,-208.39673,386.28723
61,648955.4428672031,seasonal_calving_id_4_1975_2025.nc,8.150805957620582e-05,MAR3.9_HadGEM2-ES_rcp85_ocean_1960-2100_v4.nc,DMI-HIRHAM5_ERA_1975_2021_EPSG3413_4500M_MM.nc,0.00025082945361756934,1.684373332495983,0.3897615279164021,1.478570154510982,2.9404566,3.2839177,0.7085102,0.02234681,7.262701,43.923363,-408.15994,509.1845
62,425166.7032848366,seasonal_calving_id_2_1975_2025.nc,9.771769706145211e-05,MAR3.9_CNRM-CM6_ssp585_ocean_1960-2100_v4.nc,MARv3.14-monthly-ERA5-1975_2023.nc,0.00032151856544134264,1.2873179164862445,0.3774500909346807,1.1077089355032792,2.9451544,3.3690417,0.80285466,0.024850098,5.4269156,40.436012,-422.8394,420.0354
63,387528.55323155166,seasonal_calving_id_3_1975_2025.nc,9.68357800383505e-05,MAR3.9_ACCESS1-3_rcp85_ocean_1960-2100_v4.nc,MARv3.14-monthly-ERA5-1975_2023.nc,0.0002646963743849017,1.361906135566132,0.45606600429854016,1.8673439950419142,2.4904978,3.3880248,0.72083074,0.017336864,11.3466015,41.366405,-274.73343,154.5583
64,500164.51641744515,seasonal_calving_id_2_1975_2025.nc,9.958205495755306e-05,MAR3.9_CNRM-CM6_ssp126_ocean_1960-2100_v4.nc,DMI-HIRHAM5_ERA_1975_2021_EPSG3413_4500M_MM.nc,0.00028031620996411377,1.0602546641078638,0.594590614615265,1.6689023091476118,2.587631,3.3295603,0.8359821,0.020938484,6.022066,41.781334,-337.1464,345.23236
65,640584.5770670264,seasonal_calving_id_3_1975_2025.nc,0.00014133380551889464,MAR3.9_CSIRO-Mk3.6_rcp85_ocean_1960-2100_v4.nc,DMI-HIRHAM5_ERA_1975_2021_EPSG3413_4500M_MM.nc,0.0003554618219271073,1.1252393257848847,0.6582062429042208,1.6484759711551675,2.7999425,3.3445654,0.7458219,0.025820324,6.866905,41.082832,-299.11026,357.2485
66,379979.09598984115,seasonal_calving_id_0_1975_2025.nc,0.00011430549870213936,MAR3.9_NorESM1-M_rcp85_ocean_1960-2100_v4.nc,MARv3.14-monthly-ERA5-1975_2023.nc,0.00027551503470127185,1.2352842710521832,0.6659442129329887,1.3797350854703496,2.668363,3.3707595,0.78299326,0.019091576,10.254505,43.94428,-417.1494,339.44638
67,574190.6643068715,seasonal_calving_id_0_1975_2025.nc,0.00010260894059401696,MAR3.9_MIROC-ESM-CHEM_rcp85_ocean_1960-2100_v4.nc,DMI-HIRHAM5_ERA_1975_2021_EPSG3413_4500M_MM.nc,0.0003459984901281367,1.3200595943571594,0.6418254220719061,1.3378431273211098,2.5136304,3.2681813,0.73966527,0.017492559,8.022768,40.057484,-259.8417,247.74783
68,540461.1398427782,seasonal_calving_id_0_1975_2025.nc,0.00012383806874404163,MAR3.9_ACCESS1-3_rcp85_ocean_1960-2100_v4.nc,MARv3.14-monthly-ERA5-1975_2023.nc,0.00026566569922938695,1.6604187800731098,0.5418768426072494,1.8007259602527854,3.0104115,3.3056712,0.54283124,0.024641022,6.0450826,43.272537,-681.5075,678.0785
69,352197.0398768862,seasonal_calving_id_4_1975_2025.nc,0.0001251085221833406,MAR3.9_IPSL-CM5-MR_rcp85_ocean_1960-2100_v4.nc,DMI-HIRHAM5_ERA_1975_2021_EPSG3413_4500M_MM.nc,0.0002779622394252009,1.0556482741704982,0.5605557060039551,1.9946304878399796,2.7254603,3.2920163,0.7830728,0.01606029,8.132166,41.88664,-390.5668,282.12888
70,612646.3453483692,seasonal_calving_id_3_1975_2025.nc,0.00012048861703950843,MAR3.9_UKESM1-CM6_ssp585_ocean_1960-2100_v4.nc,MARv3.14-monthly-ERA5-1975_2023.nc,0.0002726804082735275,1.3690231040030807,0.5966166780924165,1.6090053522466894,2.910047,3.2661498,0.8367332,0.022571858,6.025898,43.42306,-249.65396,334.22894
71,443351.7460841668,seasonal_calving_id_7_1975_2025.nc,0.00014235309587257953,MAR3.9_CNRM-CM6_ssp585_ocean_1960-2100_v4.nc,MARv3.14-monthly-ERA5-1975_2023.nc,0.00034516699666332137,1.2428218984785886,0.40196970077453553,1.787669863458829,2.9974914,3.3728259,0.7271359,0.022429563,6.0860724,42.388515,-360.11624,345.15015
72,419069.379747852,seasonal_calving_id_0_1975_2025.nc,7.818732002036374e-05,MAR3.9_CNRM-CM6_ssp126_ocean_1960-2100_v4.nc,MARv3.14-monthly-ERA5-1975_2023.nc,0.0002705936971060126,1.4490345004892071,0.5451620731256074,1.8298339625896394,2.9481966,3.3216588,0.66685015,0.019315705,7.3028092,42.78833,-444.2999,300.74066
73,384997.17614638095,seasonal_calving_id_7_1975_2025.nc,0.0001380785522147806,MAR3.9_CSIRO-Mk3.6_rcp85_ocean_1960-2100_v4.nc,MARv3.14-monthly-ERA5-1975_2023.nc,0.00034155110901276675,1.6991289508774967,0.36194351830234817,1.2372442908752936,2.8537347,3.2875285,0.76718414,0.018347275,8.435025,44.23743,-227.19449,195.48642
74,473446.5271846651,seasonal_calving_id_4_1975_2025.nc,8.797267120835224e-05,MAR3.9_HadGEM2-ES_rcp85_ocean_1960-2100_v4.nc,MARv3.14-monthly-ERA5-1975_2023.nc,0.0003529001266244395,1.1649208832622526,0.5859222627372794,1.1556195940900205,2.758642,3.2940478,0.79235446,0.015192317,7.547667,43.35947,-404.92538,156.9007
75,562679.5958065564,seasonal_calving_id_7_1975_2025.nc,0.0001345451942912101,MAR3.9_IPSL-CM5-MR_rcp85_ocean_1960-2100_v4.nc,DMI-HIRHAM5_ERA_1975_2021_EPSG3413_4500M_MM.nc,0.00024941446497728475,1.4554888434190723,0.3988515731514356,1.389600295742567,2.4638464,3.2582843,0.7323481,0.020707311,5.418359,44.007713,-370.63644,177.32744
76,366120.9171730318,seasonal_calving_id_6_1975_2025.nc,0.00014437269952297308,MAR3.9_NorESM1-M_rcp85_ocean_1960-2100_v4.nc,MARv3.14-monthly-ERA5-1975_2023.nc,0.00029674504481430196,1.303041963788235,0.6216685608001729,2.740626766571328,2.5953414,3.242907,0.79181963,0.020181462,5.73482,42.987133,-374.9258,316.15292
77,595155.6502210409,seasonal_calving_id_4_1975_2025.nc,0.00010277713629779797,MAR3.9_MIROC-ESM-CHEM_rcp85_ocean_1960-2100_v4.nc,MARv3.14-monthly-ERA5-1975_2023.nc,0.00024701601130102605,1.4377545013144997,0.6283188634211035,2.3849289305954295,2.7337446,3.2684197,0.7829944,0.021661457,6.4532423,40.55638,-301.00912,178.0099
78,488329.15041416185,seasonal_calving_id_0_1975_2025.nc,9.032227892917784e-05,MAR3.9_NorESM1-M_rcp85_ocean_1960-2100_v4.nc,MARv3.14-monthly-ERA5-1975_2023.nc,0.0003540917385655693,1.5571995502672005,0.6854470151999472,2.7619426174829713,2.322601,3.3692183,0.82787216,0.017542653,5.6833405,42.331005,-476.44028,381.29343
79,515489.3485827387,seasonal_calving_id_7_1975_2025.nc,0.0001292885926772022,MAR3.9_CNRM-CM6_ssp585_ocean_1960-2100_v4.nc,DMI-HIRHAM5_ERA_1975_2021_EPSG3413_4500M_MM.nc,0.0002989974977471878,1.1017721129512599,0.6131916768579422,2.1301761391038507,2.6530774,3.3129742,0.7028866,0.021308284,5.1264186,41.48425,-617.0648,466.25424
80,368023.0837049726,seasonal_calving_id_6_1975_2025.nc,0.00012143233388223348,MAR3.9_CNRM-CM6_ssp585_ocean_1960-2100_v4.nc,DMI-HIRHAM5_ERA_1975_2021_EPSG3413_4500M_MM.nc,0.0002907361339171609,1.0886514295872907,0.6941659202769854,1.2276153925450868,2.0820448,3.3916707,0.74393964,0.016242957,9.598984,43.91291,-393.87277,405.6019
81,362513.061834229,seasonal_calving_id_2_1975_2025.nc,0.00014399744692763117,MAR3.9_IPSL-CM5-MR_rcp85_ocean_1960-2100_v4.nc,DMI-HIRHAM5_ERA_1975_2021_EPSG3413_4500M_MM.nc,0.00032455572624562345,1.1817677375227533,0.35126233818656594,1.6878029789826101,2.2236607,3.327008,0.60177803,0.016190216,7.9204593,42.15044,-606.12335,309.4025
82,644374.398196395,seasonal_calving_id_7_1975_2025.nc,0.00014629394151242334,MAR3.9_MIROC-ESM-CHEM_rcp85_ocean_1960-2100_v4.nc,DMI-HIRHAM5_ERA_1975_2021_EPSG3413_4500M_MM.nc,0.0003099549302812796,1.5151906169642335,0.49079060477548037,2.6169921184082563,3.0119987,3.3158605,0.83274776,0.016692039,6.2200317,43.690617,-340.98288,220.96877
83,511332.3972542841,seasonal_calving_id_1_1975_2025.nc,7.639680124787971e-05,MAR3.9_CSIRO-Mk3.6_rcp85_ocean_1960-2100_v4.nc,MARv3.14-monthly-ERA5-1975_2023.nc,0.0002535076216689726,1.1451696024573355,0.6703784854647202,1.73337428443876,2.4232616,3.227932,0.5829579,0.018694295,8.845072,41.71566,-305.16455,239.27379
84,396241.6892317895,seasonal_calving_id_2_1975_2025.nc,9.831050775983793e-05,MAR3.9_CSIRO-Mk3.6_rcp85_ocean_1960-2100_v4.nc,DMI-HIRHAM5_ERA_1975_2021_EPSG3413_4500M_MM.nc,0.00024088500950212907,1.0405850314618694,0.3169391143341908,1.5120094849259176,2.2876768,3.3756006,0.87102926,0.015196972,8.899694,43.93304,-319.6802,152.27786
85,472614.05238114716,seasonal_calving_id_4_1975_2025.nc,0.0001351753897466264,MAR3.9_IPSL-CM5-MR_rcp85_ocean_1960-2100_v4.nc,MARv3.14-monthly-ERA5-1975_2023.nc,0.000337042377464282,1.3314296619117327,0.41051279048544337,1.7468448174010534,2.4672272,3.3630686,0.7570032,0.022620311,7.1569037,44.33187,-379.5291,411.02396
86,393246.77532070805,seasonal_calving_id_7_1975_2025.nc,8.667946589418032e-05,MAR3.9_MIROC-ESM-CHEM_rcp85_ocean_1960-2100_v4.nc,DMI-HIRHAM5_ERA_1975_2021_EPSG3413_4500M_MM.nc,0.00031126146112541114,1.6031592460273367,0.35397950105039927,1.5303193127615065,2.4085824,3.24378,0.76477444,0.018116998,7.7056847,41.01386,-351.98703,280.7178
87,376459.09191424254,seasonal_calving_id_6_1975_2025.nc,0.00011041732002706543,MAR3.9_MIROC-ESM-CHEM_rcp26_ocean_1960-2100_v4.nc,MARv3.14-monthly-ERA5-1975_2023.nc,0.00026691799884531075,1.034043452404307,0.4137765445844538,2.5136401505098602,1.9765493,3.384868,0.6845991,0.016792674,6.772229,43.837654,-496.92963,336.6147
88,480711.4337436681,seasonal_calving_id_5_1975_2025.nc,0.00014894721968592366,MAR3.9_CNRM-CM6_ssp585_ocean_1960-2100_v4.nc,DMI-HIRHAM5_ERA_1975_2021_EPSG3413_4500M_MM.nc,0.00028998446948188216,1.2716308084764216,0.32350981017387964,2.6855198159284948,2.604222,3.274735,0.79077566,0.016003119,7.5825562,41.94753,-385.9778,175.35428
89,459193.77676059987,seasonal_calving_id_2_1975_2025.nc,9.476665690084147e-05,MAR3.9_HadGEM2-ES_rcp85_ocean_1960-2100_v4.nc,MARv3.14-monthly-ERA5-1975_2023.nc,0.00031810745156770693,1.2203615432782595,0.44565181349579347,2.584516256233962,2.3380325,3.2924936,0.67094636,0.015017575,5.7670293,42.856678,-408.08478,227.22002
90,607864.5382044048,seasonal_calving_id_2_1975_2025.nc,0.0001149358690788173,MAR3.9_IPSL-CM5-MR_rcp85_ocean_1960-2100_v4.nc,DMI-HIRHAM5_ERA_1975_2021_EPSG3413_4500M_MM.nc,0.000263606635101858,1.2590367977997585,0.3382808563042107,1.2986069446802526,2.6522868,3.314823,0.8560464,0.01753636,9.728411,42.522907,-333.71478,370.77762
91,635581.9431501864,seasonal_calving_id_5_1975_2025.nc,0.0001164853377428838,MAR3.9_CNRM-CM6_ssp585_ocean_1960-2100_v4.nc,MARv3.14-monthly-ERA5-1975_2023.nc,0.00034700946683518765,1.1296546102426053,0.3922752511674261,2.2141942840910165,2.43591,3.3401866,0.69380563,0.019905485,9.442526,40.083008,-282.24152,279.00003
92,361624.99749547685,seasonal_calving_id_7_1975_2025.nc,0.000100621360971933,MAR3.9_CNRM-CM6_ssp585_ocean_1960-2100_v4.nc,DMI-HIRHAM5_ERA_1975_2021_EPSG3413_4500M_MM.nc,0.0002770603072618632,1.4112979540659498,0.4217356110632686,2.0344886298556157,2.6499424,3.2574477,0.7806444,0.021226242,6.4441833,43.404747,-306.45676,452.2672
93,409535.9318421876,seasonal_calving_id_1_1975_2025.nc,7.880983699989298e-05,MAR3.9_NorESM1-M_rcp85_ocean_1960-2100_v4.nc,DMI-HIRHAM5_ERA_1975_2021_EPSG3413_4500M_MM.nc,0.00033179360976623787,1.5099457177622417,0.48242480047360725,2.726705656087735,2.6398315,3.3585942,0.8492388,0.019516084,5.4026117,43.927757,-393.06277,238.1246
94,438016.9464518814,seasonal_calving_id_1_1975_2025.nc,8.51157667962436e-05,MAR3.9_MIROC-ESM-CHEM_rcp26_ocean_1960-2100_v4.nc,MARv3.14-monthly-ERA5-1975_2023.nc,0.0003435809826099208,1.405345402589413,0.5025695854127163,2.233573683197017,2.4824443,3.2698903,0.8438942,0.015076338,5.7989016,43.60865,-359.1239,271.7435
95,499641.1823702444,seasonal_calving_id_5_1975_2025.nc,9.998673628201657e-05,MAR3.9_ACCESS1-3_rcp85_ocean_1960-2100_v4.nc,MARv3.14-monthly-ERA5-1975_2023.nc,0.00024342240601730778,1.6241069359608118,0.5140402780908304,1.1750060459509089,2.733272,3.2599971,0.8336435,0.01728956,8.156701,40.751186,-245.28441,192.16663
96,381526.27762060333,seasonal_calving_id_4_1975_2025.nc,0.00010161456348131474,MAR3.9_UKESM1-CM6_ssp585_ocean_1960-2100_v4.nc,MARv3.14-monthly-ERA5-1975_2023.nc,0.0002563621348342242,1.281943987472255,0.638437080107999,1.9057771924756377,2.3643465,3.2763872,0.8148501,0.017727144,5.969555,41.945946,-316.2391,238.11058
97,452174.13348321395,seasonal_calving_id_4_1975_2025.nc,8.750263900390101e-05,MAR3.9_MIROC-ESM-CHEM_rcp26_ocean_1960-2100_v4.nc,MARv3.14-monthly-ERA5-1975_2023.nc,0.0003033610018590007,1.2294116060188587,0.4869427884264327,1.26920883336494,2.2536314,3.303099,0.6731389,0.01675853,8.0922575,40.996483,-412.50967,143.87474
98,440362.3903927118,seasonal_calving_id_6_1975_2025.nc,8.909896443351128e-05,MAR3.9_CNRM-ESM2_ssp585_ocean_1960-2100_v4.nc,MARv3.14-monthly-ERA5-1975_2023.nc,0.000278972750236833,1.248401265541294,0.5885737882735351,2.4760735202124806,2.6586497,3.3466387,0.84028757,0.02176059,8.8375225,43.439922,-271.00427,436.00433
99,624330.8125036862,seasonal_calving_id_3_1975_2025.nc,0.00013223190916887093,MAR3.9_HadGEM2-ES_rcp85_ocean_1960-2100_v4.nc,MARv3.14-monthly-ERA5-1975_2023.nc,0.00030024334704745426,1.6390070435488258,0.30609737575170076,2.267610358845947,2.5117886,3.2568762,0.8736578,0.017160404,8.612584,44.822086,-321.52402,131.01578
