id,calving.vonmises_calving.sigma_max,calving.rate_scaling.file,ocean.th.gamma_T,ocean_file,climate_file,frontal_melt.routing.parameter_a,frontal_melt.routing.parameter_b,frontal_melt.routing.power_alpha,frontal_melt.routing.power_beta,stress_balance.sia.enhancement_factor,stress_balance.ssa.Glen_exponent,basal_resistance.pseudo_plastic.q,basal_yield_stress.mohr_coulomb.till_effective_fraction_overburden,basal_yield_stress.mohr_coulomb.topg_to_phi.phi_min,basal_yield_stress.mohr_coulomb.topg_to_phi.phi_max,basal_yield_stress.mohr_coulomb.topg_to_phi.topg_min,basal_yield_stress.mohr_coulomb.topg_to_phi.topg_max
0,447484.67103454564,seasonal_calving_id_1_1975_2025.nc,9.678066662424321e-05,MAR3.9_UKESM1-CM6_ssp585_ocean_1960-2100_v4.nc,DMI-HIRHAM5_ERA_1975_2021_EPSG3413_4500M_MM.nc,0.0002580303382187,1.365815857713447,0.557551036281746,2.4534055208791363,2.1663113,3.356788,0.7911476,0.023095673,8.885058,41.26654,-236.16461,518.69495
1,488645.5786150788,seasonal_calving_id_4_1975_2025.nc,0.00011573948890205893,MAR3.9_MIROC-ESM-CHEM_rcp26_ocean_1960-2100_v4.nc,DMI-HIRHAM5_ERA_1975_2021_EPSG3413_4500M_MM.nc,0.00033229419476572017,1.5872311392117848,0.5415576322522367,2.3076351541450313,3.016925,3.3319383,0.84655684,0.017676063,6.763061,42.475166,-344.66736,96.45913
2,561682.7150212015,seasonal_calving_id_0_1975_2025.nc,0.00014797562106488385,MAR3.9_CNRM-CM6_ssp585_ocean_1960-2100_v4.nc,MARv3.14-monthly-ERA5-1975_2023.nc,0.00025351044209677995,1.6446459434867073,0.5000160793123911,1.9152523672556632,3.1110811,3.2847638,0.728737,0.021800965,9.501692,43.504536,-273.16562,278.49408
3,521568.97101785033,seasonal_calving_id_0_1975_2025.nc,0.00013063740360050782,MAR3.9_MIROC-ESM-CHEM_rcp26_ocean_1960-2100_v4.nc,MARv3.14-monthly-ERA5-1975_2023.nc,0.0002604641505837779,1.0630506033869096,0.46277880570642543,2.2627093630413597,3.0145874,3.3353636,0.71975774,0.02689705,6.522686,41.25561,-302.79642,390.5639
4,460164.7164977897,seasonal_calving_id_3_1975_2025.nc,0.00010356510143743473,MAR3.9_CNRM-CM6_ssp126_ocean_1960-2100_v4.nc,MARv3.14-monthly-ERA5-1975_2023.nc,0.0002434831565128279,1.0701342804373786,0.43573804993868326,2.5340541427541847,2.7015493,3.3013217,0.87594324,0.021619523,5.5630107,42.285286,-323.0575,317.47894
5,636011.0852970311,seasonal_calving_id_3_1975_2025.nc,0.00013926294639980894,MAR3.9_MIROC-ESM-CHEM_rcp85_ocean_1960-2100_v4.nc,DMI-HIRHAM5_ERA_1975_2021_EPSG3413_4500M_MM.nc,0.00027310579490362545,1.1239380018779115,0.3189638583069455,1.7485072823413366,2.9541461,3.2885394,0.70648247,0.01927497,7.038452,40.92231,-410.09756,235.09312
6,438294.59498309996,seasonal_calving_id_3_1975_2025.nc,0.00014252991696340372,MAR3.9_CNRM-CM6_ssp126_ocean_1960-2100_v4.nc,MARv3.14-monthly-ERA5-1975_2023.nc,0.00034774030151233916,1.2123301990667599,0.4842659647625028,2.548679133603465,2.5257707,3.3254995,0.771478,0.022387983,6.830776,41.50603,-416.52463,348.25415
7,493494.66009617946,seasonal_calving_id_1_1975_2025.nc,0.0001326180068016341,MAR3.9_UKESM1-CM6_ssp585_ocean_1960-2100_v4.nc,MARv3.14-monthly-ERA5-1975_2023.nc,0.0002987648524815067,1.4551104134861794,0.41497091881213116,1.9200102395732368,1.9627622,3.361455,0.74978626,0.016365109,7.715282,41.83902,-528.84546,318.3415
8,436959.54267609084,seasonal_calving_id_5_1975_2025.nc,0.000139854750820171,MAR3.9_ACCESS1-3_rcp85_ocean_1960-2100_v4.nc,MARv3.14-monthly-ERA5-1975_2023.nc,0.000356028793461238,1.4980326412683598,0.32467579522325285,1.3344544760322106,2.909851,3.3056474,0.6641656,0.024335133,6.9708824,44.907303,-431.24088,666.0207
9,579581.6206219887,seasonal_calving_id_0_1975_2025.nc,9.038815004999984e-05,MAR3.9_ACCESS1-3_rcp85_ocean_1960-2100_v4.nc,MARv3.14-monthly-ERA5-1975_2023.nc,0.0002481174174555982,1.1758270468896541,0.572362034047268,1.9696436273795401,2.8444903,3.2772198,0.6698655,0.026755873,6.9925003,40.618275,-298.837,470.3197
10,534622.6554315203,seasonal_calving_id_5_1975_2025.nc,8.148057452051352e-05,MAR3.9_IPSL-CM5-MR_rcp85_ocean_1960-2100_v4.nc,MARv3.14-monthly-ERA5-1975_2023.nc,0.00031148664419398644,1.4438423518312784,0.35016851826580464,1.2753957461974197,1.9703557,3.3713648,0.75500095,0.02024733,8.005078,42.067318,-542.32733,650.5408
11,639382.4144756219,seasonal_calving_id_0_1975_2025.nc,0.0001375193519235938,MAR3.9_IPSL-CM5-MR_rcp85_ocean_1960-2100_v4.nc,DMI-HIRHAM5_ERA_1975_2021_EPSG3413_4500M_MM.nc,0.00027724506608371485,1.48945415262414,0.5361681010490051,1.8058128491082717,2.3179817,3.3697298,0.8377145,0.014764156,9.887652,43.711266,-319.64838,86.90781
12,570518.2327302516,seasonal_calving_id_3_1975_2025.nc,0.00012784329933828516,MAR3.9_HadGEM2-ES_rcp85_ocean_1960-2100_v4.nc,DMI-HIRHAM5_ERA_1975_2021_EPSG3413_4500M_MM.nc,0.00029938003612548674,1.4266823350955262,0.6214815215458089,2.4894640648353668,2.7543688,3.337315,0.81774926,0.0165527,6.4120984,42.09165,-471.75537,144.91943
13,481349.8130908755,seasonal_calving_id_1_1975_2025.nc,0.00010717791615623822,MAR3.9_MIROC-ESM-CHEM_rcp85_ocean_1960-2100_v4.nc,MARv3.14-monthly-ERA5-1975_2023.nc,0.0003511404262679589,1.6707346732655837,0.6895614841476874,1.894948109046891,2.7137983,3.2808015,0.7070395,0.022647472,7.6686826,42.535088,-224.60309,229.18735
14,583912.0197812222,seasonal_calving_id_5_1975_2025.nc,0.00010551284457200313,MAR3.9_HadGEM2-ES_rcp85_ocean_1960-2100_v4.nc,MARv3.14-monthly-ERA5-1975_2023.nc,0.00032361074773763147,1.3386907029377961,0.6549580636443058,1.7687547148369622,2.8425386,3.3479223,0.6924994,0.019796256,6.2533026,44.832077,-443.80264,282.74936
15,426226.30822784343,seasonal_calving_id_6_1975_2025.nc,0.0001367199252550665,MAR3.9_CNRM-CM6_ssp126_ocean_1960-2100_v4.nc,MARv3.14-monthly-ERA5-1975_2023.nc,0.0002845015029373853,1.541641070304689,0.35457160348390304,2.5277151209131126,2.4196136,3.3239732,0.8607758,0.019642485,6.6964264,43.04657,-396.59503,349.3066
16,526118.167312027,seasonal_calving_id_2_1975_2025.nc,0.0001421730266914953,MAR3.9_CNRM-ESM2_ssp585_ocean_1960-2100_v4.nc,MARv3.14-monthly-ERA5-1975_2023.nc,0.00024930075537747795,1.4297466726336752,0.4726573679784699,1.5781132154212754,3.0196676,3.416721,0.73367274,0.02454924,6.990378,44.076923,-343.4749,706.6783
17,456789.83307367074,seasonal_calving_id_3_1975_2025.nc,9.511768567624379e-05,MAR3.9_CNRM-CM6_ssp585_ocean_1960-2100_v4.nc,DMI-HIRHAM5_ERA_1975_2021_EPSG3413_4500M_MM.nc,0.00033429836690536364,1.0141745160044349,0.5042132919180994,1.9481569871978177,2.3549402,3.2863877,0.65966827,0.015556886,9.038039,42.16267,-284.32266,184.08138
18,593489.4720237027,seasonal_calving_id_4_1975_2025.nc,9.181168017208735e-05,MAR3.9_UKESM1-CM6_ssp585_ocean_1960-2100_v4.nc,MARv3.14-monthly-ERA5-1975_2023.nc,0.0003574329042796493,1.4114165317812595,0.3562397828242597,1.4591549571856248,3.098851,3.3349059,0.7160841,0.018605398,8.6459055,41.755848,-377.56082,269.43042
19,388333.5130806297,seasonal_calving_id_5_1975_2025.nc,9.123161847781781e-05,MAR3.9_CNRM-CM6_ssp585_ocean_1960-2100_v4.nc,DMI-HIRHAM5_ERA_1975_2021_EPSG3413_4500M_MM.nc,0.00033007705742800074,1.4808043953795194,0.6571073820814252,1.5682222730244075,2.372004,3.3634255,0.73237276,0.01955625,8.801701,44.60829,-429.89554,759.96936
20,396411.44169821683,seasonal_calving_id_6_1975_2025.nc,0.00011356202646118747,MAR3.9_MIROC-ESM-CHEM_rcp85_ocean_1960-2100_v4.nc,DMI-HIRHAM5_ERA_1975_2021_EPSG3413_4500M_MM.nc,0.00027666260427312357,1.6334788113042653,0.5136959086600412,2.2243522630230306,2.7870705,3.3340838,0.89982486,0.020026144,5.567085,40.582077,-399.1058,203.25342
21,553411.4168147579,seasonal_calving_id_6_1975_2025.nc,8.688711957764085e-05,MAR3.9_ACCESS1-3_rcp85_ocean_1960-2100_v4.nc,DMI-HIRHAM5_ERA_1975_2021_EPSG3413_4500M_MM.nc,0.00024964030519962667,1.6515954210287576,0.4827370764976943,1.5361914814825774,2.8423572,3.3036792,0.728916,0.015731983,10.013664,44.130302,-354.9621,88.11359
22,626806.4599973509,seasonal_calving_id_0_1975_2025.nc,0.00012239973519086918,MAR3.9_CSIRO-Mk3.6_rcp85_ocean_1960-2100_v4.nc,DMI-HIRHAM5_ERA_1975_2021_EPSG3413_4500M_MM.nc,0.0003008210953836969,1.6851401507013177,0.6108986340772709,2.1608765385127056,3.0513062,3.3028915,0.68535143,0.016830815,12.102112,42.83786,-289.72043,155.39822
23,476950.6437354518,seasonal_calving_id_0_1975_2025.nc,0.00011118217408211134,MAR3.9_CNRM-CM6_ssp585_ocean_1960-2100_v4.nc,MARv3.14-monthly-ERA5-1975_2023.nc,0.00028741367535553883,1.3590778769474468,0.33497487392433434,2.786305303242679,2.6449535,3.2876298,0.7794137,0.017426103,5.5874276,41.534973,-348.00476,218.12186
24,462920.8528310143,seasonal_calving_id_2_1975_2025.nc,0.00012530256575786058,MAR3.9_NorESM1-M_rcp85_ocean_1960-2100_v4.nc,MARv3.14-monthly-ERA5-1975_2023.nc,0.00027899761910435156,1.2092188187287607,0.40636215946892695,1.1396325243414864,2.8617222,3.3098333,0.63198155,0.02747287,8.356876,40.333897,-222.18935,299.30246
25,508735.0624509561,seasonal_calving_id_2_1975_2025.nc,0.0001499160995183148,MAR3.9_MIROC-ESM-CHEM_rcp26_ocean_1960-2100_v4.nc,MARv3.14-monthly-ERA5-1975_2023.nc,0.00026975630030900895,1.0250952745332365,0.3380678527546986,2.219504020270242,2.6015875,3.2662094,0.5851535,0.01737076,5.8642745,44.16559,-479.80344,371.05374
26,475681.40896501887,seasonal_calving_id_4_1975_2025.nc,0.00010230097749938078,MAR3.9_CNRM-CM6_ssp126_ocean_1960-2100_v4.nc,MARv3.14-monthly-ERA5-1975_2023.nc,0.00032643481020290125,1.6089909956074089,0.34057612532716364,1.8747271063060968,2.533679,3.1780953,0.61412024,0.01832979,9.026063,41.78083,-247.87466,141.89145
27,527495.7144797631,seasonal_calving_id_6_1975_2025.nc,0.00011862216082592707,MAR3.9_MIROC-ESM-CHEM_rcp85_ocean_1960-2100_v4.nc,DMI-HIRHAM5_ERA_1975_2021_EPSG3413_4500M_MM.nc,0.00026717252874709904,1.3243667811190871,0.4690739250285364,2.475296754888091,1.9677942,3.3529682,0.7912624,0.019837579,10.668056,41.867535,-232.06064,563.19025
28,361140.55109908665,seasonal_calving_id_4_1975_2025.nc,0.00010760003488148056,MAR3.9_NorESM1-M_rcp85_ocean_1960-2100_v4.nc,MARv3.14-monthly-ERA5-1975_2023.nc,0.0003369394014399599,1.138860367453245,0.6965718861748,1.9636271919313404,2.5063965,3.2542496,0.6649503,0.021176446,10.451701,44.2371,-260.693,336.3029
29,443864.85139293625,seasonal_calving_id_1_1975_2025.nc,0.00010046033858015371,MAR3.9_CNRM-ESM2_ssp585_ocean_1960-2100_v4.nc,DMI-HIRHAM5_ERA_1975_2021_EPSG3413_4500M_MM.nc,0.00031638023109201385,1.3346070129086776,0.38634229887390575,2.007351592543645,2.6713955,3.2666728,0.83864576,0.024211835,6.637519,41.81551,-337.3491,357.4421
30,611039.8634282956,seasonal_calving_id_2_1975_2025.nc,0.00014579846650756897,MAR3.9_CSIRO-Mk3.6_rcp85_ocean_1960-2100_v4.nc,DMI-HIRHAM5_ERA_1975_2021_EPSG3413_4500M_MM.nc,0.0003533002119533445,1.2398784700334495,0.5348671008318849,1.2528852289311267,3.073204,3.3196552,0.6205933,0.016652333,10.580813,44.58668,-406.3611,208.63788
31,620852.2731762205,seasonal_calving_id_4_1975_2025.nc,0.00010986552591538479,MAR3.9_IPSL-CM5-MR_rcp85_ocean_1960-2100_v4.nc,MARv3.14-monthly-ERA5-1975_2023.nc,0.0002450978095513178,1.2341075222785367,0.6728308230527804,1.128805855051567,3.1134152,3.319706,0.7304164,0.015947992,5.7589726,41.853985,-417.75906,127.46195
32,467638.9850475306,seasonal_calving_id_6_1975_2025.nc,9.414738253053124e-05,MAR3.9_CNRM-ESM2_ssp585_ocean_1960-2100_v4.nc,MARv3.14-monthly-ERA5-1975_2023.nc,0.00031831940092209247,1.6617704144618541,0.6274040176899034,2.3670406415024807,2.5677435,3.2958071,0.6425189,0.0148786595,5.763222,43.46359,-494.4177,163.81447
33,356173.163677493,seasonal_calving_id_1_1975_2025.nc,8.046286101565153e-05,MAR3.9_CSIRO-Mk3.6_rcp85_ocean_1960-2100_v4.nc,DMI-HIRHAM5_ERA_1975_2021_EPSG3413_4500M_MM.nc,0.00030853892527029926,1.174252791219517,0.6959738249628351,2.7356024662900706,2.3417764,3.3347788,0.7754233,0.013934504,7.953271,42.010548,-499.8324,159.08122
34,544016.8121299968,seasonal_calving_id_4_1975_2025.nc,0.00014532038727366582,MAR3.9_MIROC-ESM-CHEM_rcp26_ocean_1960-2100_v4.nc,MARv3.14-monthly-ERA5-1975_2023.nc,0.00034157219564146934,1.2635095837414454,0.450054498333719,1.2695249197274676,3.309185,3.3577216,0.6710594,0.025767937,6.523747,42.542282,-375.3101,172.89726
35,369135.9032515233,seasonal_calving_id_2_1975_2025.nc,0.00014681740989031574,MAR3.9_IPSL-CM5-MR_rcp85_ocean_1960-2100_v4.nc,DMI-HIRHAM5_ERA_1975_2021_EPSG3413_4500M_MM.nc,0.00028123498496613805,1.3984724953606484,0.5997138980737399,2.58573091902459,2.0389333,3.2926762,0.59543467,0.015855672,5.7183805,42.347034,-415.56354,91.55231
36,545372.2707282691,seasonal_calving_id_6_1975_2025.nc,8.553462027682801e-05,MAR3.9_CNRM-CM6_ssp126_ocean_1960-2100_v4.nc,MARv3.14-monthly-ERA5-1975_2023.nc,0.00024369007881759478,1.4342499656571863,0.6870393360045727,2.4204462414384684,2.287048,3.3099332,0.6475245,0.01698419,6.6061215,41.291355,-427.991,156.20045
37,351849.09957638895,seasonal_calving_id_0_1975_2025.nc,8.449285391826152e-05,MAR3.9_CNRM-ESM2_ssp585_ocean_1960-2100_v4.nc,MARv3.14-monthly-ERA5-1975_2023.nc,0.0002639401967338459,1.5705822055379437,0.4944979005654138,2.3377155175292224,2.7886283,3.245891,0.6801822,0.017811894,5.6430683,42.876244,-405.53497,278.93332
38,513705.6179197435,seasonal_calving_id_1_1975_2025.nc,0.0001407248971869775,MAR3.9_CNRM-CM6_ssp126_ocean_1960-2100_v4.nc,MARv3.14-monthly-ERA5-1975_2023.nc,0.0003427709525780059,1.6285644857526251,0.36021329001323027,2.0750788005963305,2.4503531,3.307945,0.76767105,0.016474357,8.436207,44.087807,-379.93207,269.04053
39,410111.0265079068,seasonal_calving_id_2_1975_2025.nc,0.00011672481202281522,MAR3.9_UKESM1-CM6_ssp585_ocean_1960-2100_v4.nc,MARv3.14-monthly-ERA5-1975_2023.nc,0.0002806604009071134,1.5332183227716296,0.3757947183500667,1.4827884041284343,2.8400183,3.3174732,0.77457654,0.024923217,6.420213,41.153744,-301.40732,400.57144
40,517321.8895018416,seasonal_calving_id_3_1975_2025.nc,0.0001474398703487374,MAR3.9_UKESM1-CM6_ssp585_ocean_1960-2100_v4.nc,DMI-HIRHAM5_ERA_1975_2021_EPSG3413_4500M_MM.nc,0.0003375406918082291,1.2866189635306307,0.3476481689702119,1.3086278448506088,1.8380646,3.2902796,0.7326957,0.011812943,9.953863,41.761982,-476.55597,244.22662
41,609358.512104624,seasonal_calving_id_0_1975_2025.nc,0.0001386717215683936,MAR3.9_IPSL-CM5-MR_rcp85_ocean_1960-2100_v4.nc,MARv3.14-monthly-ERA5-1975_2023.nc,0.0003013815529271397,1.1108212558227601,0.5823179782084212,1.692095933360775,2.5457747,3.2296987,0.71434855,0.018530536,10.438501,42.68969,-319.14755,269.73712
42,624868.3647578729,seasonal_calving_id_4_1975_2025.nc,8.905006100905628e-05,MAR3.9_CNRM-CM6_ssp585_ocean_1960-2100_v4.nc,MARv3.14-monthly-ERA5-1975_2023.nc,0.00029549760718019244,1.3147729477888865,0.6044889308452404,2.275772000547634,2.710325,3.3299992,0.9031166,0.019412505,8.567581,43.181736,-268.31915,197.29631
43,389830.127740264,seasonal_calving_id_3_1975_2025.nc,0.0001358389447011941,MAR3.9_MIROC-ESM-CHEM_rcp85_ocean_1960-2100_v4.nc,DMI-HIRHAM5_ERA_1975_2021_EPSG3413_4500M_MM.nc,0.0003171462278216545,1.6213677867414131,0.5506913505073183,1.8323897344927835,2.0743897,3.3054247,0.71412295,0.018686403,9.904125,41.119534,-458.50272,408.97595
44,599149.1931808956,seasonal_calving_id_4_1975_2025.nc,0.00011723843670117219,MAR3.9_HadGEM2-ES_rcp85_ocean_1960-2100_v4.nc,MARv3.14-monthly-ERA5-1975_2023.nc,0.00025668360033204233,1.1487640675150703,0.3902727245686604,1.391394947601748,2.5919814,3.1786375,0.85983855,0.015754584,7.5603433,41.835148,-303.0046,94.839554
45,424913.7432984222,seasonal_calving_id_5_1975_2025.nc,0.000114254030512709,MAR3.9_HadGEM2-ES_rcp85_ocean_1960-2100_v4.nc,DMI-HIRHAM5_ERA_1975_2021_EPSG3413_4500M_MM.nc,0.0003488919546755125,1.4177761248362273,0.6039395327359495,1.2231274399404874,2.176325,3.3194497,0.6921673,0.01616853,5.6294327,43.433083,-557.4985,288.47815
46,567227.2914707563,seasonal_calving_id_1_1975_2025.nc,0.00013473789647246517,MAR3.9_CSIRO-Mk3.6_rcp85_ocean_1960-2100_v4.nc,MARv3.14-monthly-ERA5-1975_2023.nc,0.0003450109044817383,1.5596492285362482,0.4118042031740212,2.022717683609396,3.0087786,3.3099442,0.7590618,0.025150375,7.1768026,43.436665,-297.34116,412.02252
47,420652.7765799423,seasonal_calving_id_0_1975_2025.nc,0.00014139321475642425,MAR3.9_IPSL-CM5-MR_rcp85_ocean_1960-2100_v4.nc,DMI-HIRHAM5_ERA_1975_2021_EPSG3413_4500M_MM.nc,0.0002949203359339129,1.4947903130056865,0.6403249046233535,1.4246850703146792,2.7215612,3.242388,0.7322936,0.017869761,8.020568,41.23827,-423.32336,210.31996
48,381683.67508895916,seasonal_calving_id_1_1975_2025.nc,0.00010199463761408229,MAR3.9_CNRM-ESM2_ssp585_ocean_1960-2100_v4.nc,DMI-HIRHAM5_ERA_1975_2021_EPSG3413_4500M_MM.nc,0.0003100675453325104,1.0799652507471413,0.3801823319131359,1.2145975376674913,2.421898,3.306891,0.8647717,0.015408717,9.067881,43.842712,-454.19443,444.7251
49,504798.0338420277,seasonal_calving_id_1_1975_2025.nc,0.00012328218788662732,MAR3.9_HadGEM2-ES_rcp85_ocean_1960-2100_v4.nc,MARv3.14-monthly-ERA5-1975_2023.nc,0.00027502270403235714,1.0958635762229794,0.30391003015332274,1.1036032788742072,2.4084039,3.3018813,0.7472833,0.014452082,5.110334,43.30174,-462.84683,263.2403
50,536310.0748487451,seasonal_calving_id_2_1975_2025.nc,0.00010349418001362632,MAR3.9_NorESM1-M_rcp85_ocean_1960-2100_v4.nc,MARv3.14-monthly-ERA5-1975_2023.nc,0.000307266249218698,1.2770153813187732,0.3073419424968468,1.5223093523752553,2.8935902,3.378273,0.91275525,0.017879924,7.873927,44.728348,-345.5533,137.20717
51,555855.4683018982,seasonal_calving_id_2_1975_2025.nc,0.00012616999527403626,MAR3.9_CNRM-ESM2_ssp585_ocean_1960-2100_v4.nc,DMI-HIRHAM5_ERA_1975_2021_EPSG3413_4500M_MM.nc,0.0002894397825637947,1.0899159232783033,0.48818236451298647,1.8483408078396466,2.501873,3.2354968,0.7850048,0.017750176,7.5023203,43.162712,-404.8246,280.50476
52,365994.25257244246,seasonal_calving_id_2_1975_2025.nc,0.00010827085031923139,MAR3.9_CNRM-CM6_ssp585_ocean_1960-2100_v4.nc,MARv3.14-monthly-ERA5-1975_2023.nc,0.0003581275115495194,1.2676642039881174,0.46564903807283897,2.1996249192835937,2.859606,3.3264947,0.7580991,0.019909404,8.388067,43.894035,-306.80402,128.34651
53,484055.7062590542,seasonal_calving_id_0_1975_2025.nc,0.00013141276089630426,MAR3.9_HadGEM2-ES_rcp85_ocean_1960-2100_v4.nc,DMI-HIRHAM5_ERA_1975_2021_EPSG3413_4500M_MM.nc,0.00028265083772650986,1.1591444166589657,0.5206697281641797,2.7133031549869493,2.9733675,3.2998648,0.70225567,0.020079847,6.4116726,41.917385,-328.82904,181.37386
54,401053.57539666496,seasonal_calving_id_5_1975_2025.nc,0.00013555348667266062,MAR3.9_HadGEM2-ES_rcp85_ocean_1960-2100_v4.nc,MARv3.14-monthly-ERA5-1975_2023.nc,0.0002706279765385096,1.0092765315017316,0.42996894594766794,1.674275403935723,2.669601,3.3393686,0.7545796,0.014710198,6.004325,43.44451,-439.30093,121.24359
55,372850.21768751944,seasonal_calving_id_5_1975_2025.nc,0.00012829829537478024,MAR3.9_CSIRO-Mk3.6_rcp85_ocean_1960-2100_v4.nc,MARv3.14-monthly-ERA5-1975_2023.nc,0.0003194981237448316,1.5133365393495497,0.5302294511956017,1.7329378807026095,2.8164928,3.2778087,0.79462045,0.021645557,9.940674,40.48229,-275.34375,292.01532
56,518698.13824082015,seasonal_calving_id_6_1975_2025.nc,8.937692117881704e-05,MAR3.9_UKESM1-CM6_ssp585_ocean_1960-2100_v4.nc,MARv3.14-monthly-ERA5-1975_2023.nc,0.00025779711838511615,1.0319426663034579,0.49770566692620016,1.9973255543123256,2.6168299,3.2958205,0.83165646,0.024787052,5.653285,44.875477,-184.91794,192.05994
57,585660.9830482039,seasonal_calving_id_2_1975_2025.nc,0.00011539397623164591,MAR3.9_ACCESS1-3_rcp85_ocean_1960-2100_v4.nc,DMI-HIRHAM5_ERA_1975_2021_EPSG3413_4500M_MM.nc,0.0002971646583828829,1.0353801383771208,0.4173666107920552,2.6331537342178635,2.4857006,3.2492406,0.79610014,0.015010439,5.974211,44.39751,-443.6116,319.30624
58,591302.4691853888,seasonal_calving_id_3_1975_2025.nc,7.809911875030672e-05,MAR3.9_NorESM1-M_rcp85_ocean_1960-2100_v4.nc,DMI-HIRHAM5_ERA_1975_2021_EPSG3413_4500M_MM.nc,0.00024672248624783876,1.352835605226551,0.594221966183897,2.050922143430044,2.2925546,3.2962801,0.59256685,0.017403904,6.4656367,41.63941,-414.6495,143.86581
59,442552.17445087864,seasonal_calving_id_1_1975_2025.nc,0.00013304033755862936,MAR3.9_CNRM-CM6_ssp126_ocean_1960-2100_v4.nc,DMI-HIRHAM5_ERA_1975_2021_EPSG3413_4500M_MM.nc,0.00031488467303799434,1.5203926161012826,0.39574586209220386,2.773820512951592,2.7275925,3.3312645,0.8771913,0.022246374,5.615486,43.320633,-407.6033,404.97934
60,510394.3156219373,seasonal_calving_id_4_1975_2025.nc,0.00014857631556323183,MAR3.9_ACCESS1-3_rcp85_ocean_1960-2100_v4.nc,MARv3.14-monthly-ERA5-1975_2023.nc,0.0002882212312818229,1.4012101943631095,0.5901498549559734,1.6599334119355345,2.9538743,3.2847164,0.78833216,0.02333735,5.368431,42.36108,-378.71622,487.9777
61,497928.82014998625,seasonal_calving_id_0_1975_2025.nc,9.609677285224681e-05,MAR3.9_CNRM-ESM2_ssp585_ocean_1960-2100_v4.nc,DMI-HIRHAM5_ERA_1975_2021_EPSG3413_4500M_MM.nc,0.0003546344305492522,1.3057827595225728,0.585677989886843,2.2954738339946363,2.8481736,3.3218718,0.7894314,0.017771317,6.492815,41.95124,-333.62894,263.49286
62,400976.18561540666,seasonal_calving_id_1_1975_2025.nc,7.603898852257327e-05,MAR3.9_UKESM1-CM6_ssp585_ocean_1960-2100_v4.nc,MARv3.14-monthly-ERA5-1975_2023.nc,0.00024156328208698802,1.1866933349761037,0.5466561618063474,2.629084317429092,2.9710696,3.2688737,0.68309194,0.025739122,5.1708965,42.860348,-431.48743,364.2962
63,602900.959247184,seasonal_calving_id_2_1975_2025.nc,7.56298602209046e-05,MAR3.9_IPSL-CM5-MR_rcp85_ocean_1960-2100_v4.nc,DMI-HIRHAM5_ERA_1975_2021_EPSG3413_4500M_MM.nc,0.0002511569527299552,1.141293019730964,0.6515546519431807,1.1803218592774805,2.8888168,3.303649,0.8272995,0.021398144,6.3803234,43.339035,-282.38345,267.61514
64,378045.13209200895,seasonal_calving_id_5_1975_2025.nc,9.7783757517988e-05,MAR3.9_MIROC-ESM-CHEM_rcp26_ocean_1960-2100_v4.nc,MARv3.14-monthly-ERA5-1975_2023.nc,0.0003277906756115347,1.1172805745766785,0.44586060198201694,2.3431607889175208,2.5363045,3.2360742,0.63719547,0.023499418,9.292973,41.658356,-302.91162,304.77948
65,450617.654276632,seasonal_calving_id_5_1975_2025.nc,0.00011176511240817166,MAR3.9_HadGEM2-ES_rcp85_ocean_1960-2100_v4.nc,MARv3.14-monthly-ERA5-1975_2023.nc,0.00026451671866140275,1.3207089665279268,0.6623833359149447,2.685119318587965,2.6129959,3.1733944,0.56725496,0.02206909,7.68768,43.0505,-284.7853,133.4133
66,646909.3328936114,seasonal_calving_id_4_1975_2025.nc,7.652300785607464e-05,MAR3.9_CNRM-CM6_ssp126_ocean_1960-2100_v4.nc,DMI-HIRHAM5_ERA_1975_2021_EPSG3413_4500M_MM.nc,0.0002835775624832111,1.1906532595254546,0.6711377506018623,2.6806348497677552,2.5867193,3.315218,0.7789935,0.016842544,8.394823,42.678646,-343.67578,310.37753
67,647116.9568790086,seasonal_calving_id_5_1975_2025.nc,0.000109374719141986,MAR3.9_HadGEM2-ES_rcp85_ocean_1960-2100_v4.nc,MARv3.14-monthly-ERA5-1975_2023.nc,0.0003209855058128408,1.6431133686264379,0.6678450714593236,2.4081559985650056,2.652289,3.2774394,0.58290774,0.01622563,7.113394,43.96887,-475.11737,170.12396
68,417167.9430076047,seasonal_calving_id_3_1975_2025.nc,0.0001434914699446428,MAR3.9_HadGEM2-ES_rcp85_ocean_1960-2100_v4.nc,DMI-HIRHAM5_ERA_1975_2021_EPSG3413_4500M_MM.nc,0.0003458289705255868,1.6928778489128045,0.4024232341256402,1.414381938558075,2.036762,3.2565842,0.79206204,0.015322592,8.09006,40.59405,-276.37985,222.03241
69,408842.1710607059,seasonal_calving_id_3_1975_2025.nc,8.309025908700793e-05,MAR3.9_ACCESS1-3_rcp85_ocean_1960-2100_v4.nc,DMI-HIRHAM5_ERA_1975_2021_EPSG3413_4500M_MM.nc,0.0003063797551846587,1.0616114565826724,0.42752638672883714,1.3881965341582236,2.7321503,3.2422016,0.73784417,0.024126511,9.190371,41.042027,-244.79366,401.96402
70,548802.1276135094,seasonal_calving_id_4_1975_2025.nc,9.927868736209414e-05,MAR3.9_UKESM1-CM6_ssp585_ocean_1960-2100_v4.nc,DMI-HIRHAM5_ERA_1975_2021_EPSG3413_4500M_MM.nc,0.0002626747820606662,1.4528161630937282,0.6395167918653042,2.139867643568994,1.8411561,3.3351405,0.81740636,0.0155835375,5.519625,42.33322,-452.68106,348.59653
71,539605.9048034343,seasonal_calving_id_5_1975_2025.nc,9.372955469025054e-05,MAR3.9_CNRM-CM6_ssp585_ocean_1960-2100_v4.nc,MARv3.14-monthly-ERA5-1975_2023.nc,0.00028602145920564716,1.226387420971996,0.36778811530897126,2.0877004330584916,2.409551,3.287536,0.7143716,0.015162721,5.9826326,43.0964,-378.95688,76.08218
72,642458.4755597276,seasonal_calving_id_0_1975_2025.nc,0.0001209523511395627,MAR3.9_MIROC-ESM-CHEM_rcp26_ocean_1960-2100_v4.nc,MARv3.14-monthly-ERA5-1975_2023.nc,0.0003240518273862821,1.46282150801202,0.6327329718068609,2.761627413658325,2.5930967,3.3339584,0.86042964,0.015797284,8.568384,44.11428,-392.37317,232.05736
73,565645.3854886532,seasonal_calving_id_3_1975_2025.nc,0.00011064446040278925,MAR3.9_CNRM-CM6_ssp585_ocean_1960-2100_v4.nc,DMI-HIRHAM5_ERA_1975_2021_EPSG3413_4500M_MM.nc,0.00031274404661444993,1.0479388800549025,0.37684546811610325,2.438208203319282,2.5051205,3.318935,0.824658,0.02435892,5.7377577,43.894585,-201.81004,114.392494
74,385200.48750994785,seasonal_calving_id_5_1975_2025.nc,9.583499456661472e-05,MAR3.9_CNRM-ESM2_ssp585_ocean_1960-2100_v4.nc,DMI-HIRHAM5_ERA_1975_2021_EPSG3413_4500M_MM.nc,0.0003443588912452738,1.0029825435120325,0.6148246627902108,1.613319938818501,2.1760798,3.3656337,0.8368708,0.022099916,9.009254,40.87248,-461.54623,763.25415
75,453592.0277187809,seasonal_calving_id_6_1975_2025.nc,7.922916814229216e-05,MAR3.9_NorESM1-M_rcp85_ocean_1960-2100_v4.nc,DMI-HIRHAM5_ERA_1975_2021_EPSG3413_4500M_MM.nc,0.0003043433495449493,1.053018284182449,0.646474927879634,1.792109484243047,1.9439301,3.224038,0.69208384,0.013537135,5.548195,43.697834,-452.2098,132.74576
76,375789.6115536118,seasonal_calving_id_6_1975_2025.nc,0.00011958658560481969,MAR3.9_CNRM-CM6_ssp126_ocean_1960-2100_v4.nc,DMI-HIRHAM5_ERA_1975_2021_EPSG3413_4500M_MM.nc,0.00033949366308469003,1.1991112087755917,0.571540138673251,1.2938563343849918,2.4738817,3.278481,0.7029021,0.015056734,5.814625,44.371685,-474.9072,210.47404
77,598334.235223345,seasonal_calving_id_6_1975_2025.nc,0.00011821145461963738,MAR3.9_ACCESS1-3_rcp85_ocean_1960-2100_v4.nc,MARv3.14-monthly-ERA5-1975_2023.nc,0.00029124623941901374,1.24988272954326,0.5087549147826573,1.1857857409258818,2.8291013,3.3975425,0.91772217,0.01902397,6.383862,42.005764,-382.37476,237.96986
78,472762.1551284384,seasonal_calving_id_2_1975_2025.nc,0.00011270467372163066,MAR3.9_CNRM-ESM2_ssp585_ocean_1960-2100_v4.nc,DMI-HIRHAM5_ERA_1975_2021_EPSG3413_4500M_MM.nc,0.000359504420968344,1.0992202568749176,0.47796876199024246,1.5548825562116,2.4235234,3.3233514,0.8208027,0.017864931,6.3647537,41.80871,-297.73065,59.122807
79,487674.9320891069,seasonal_calving_id_6_1975_2025.nc,0.00012908939670561737,MAR3.9_UKESM1-CM6_ssp585_ocean_1960-2100_v4.nc,DMI-HIRHAM5_ERA_1975_2021_EPSG3413_4500M_MM.nc,0.0002546273444243328,1.527367770390884,0.6833080443937334,1.4474329033445161,2.237392,3.36819,0.8440593,0.015431967,10.747246,43.006325,-227.55444,203.36559
80,531367.737376925,seasonal_calving_id_3_1975_2025.nc,8.740607159873224e-05,MAR3.9_MIROC-ESM-CHEM_rcp26_ocean_1960-2100_v4.nc,MARv3.14-monthly-ERA5-1975_2023.nc,0.00024066524853386576,1.5895222506172142,0.43832188028047736,1.3416585909210357,2.8802855,3.3371904,0.67763627,0.021908892,10.708339,42.042137,-296.95477,332.66183
81,465841.84829359665,seasonal_calving_id_3_1975_2025.nc,0.00010482868495228991,MAR3.9_NorESM1-M_rcp85_ocean_1960-2100_v4.nc,DMI-HIRHAM5_ERA_1975_2021_EPSG3413_4500M_MM.nc,0.00034032872771482794,1.5496378046725003,0.6191145532908164,1.160626048391152,2.729929,3.321019,0.8235097,0.019084858,6.9300237,43.741886,-384.60358,325.56052
82,573758.9644110505,seasonal_calving_id_2_1975_2025.nc,9.857423413618583e-05,MAR3.9_NorESM1-M_rcp85_ocean_1960-2100_v4.nc,DMI-HIRHAM5_ERA_1975_2021_EPSG3413_4500M_MM.nc,0.00031333481670397064,1.3855447259233844,0.6787041794578147,2.715370660882943,2.77717,3.2767725,0.74622345,0.020529637,6.3219404,40.52872,-378.6461,289.16553
83,575995.1742564004,seasonal_calving_id_1_1975_2025.nc,7.77876390295058e-05,MAR3.9_ACCESS1-3_rcp85_ocean_1960-2100_v4.nc,DMI-HIRHAM5_ERA_1975_2021_EPSG3413_4500M_MM.nc,0.0003524723144615723,1.5993652066283242,0.31459311289402747,2.183110536455799,2.9149244,3.253721,0.58098847,0.01692874,5.6850176,44.541523,-547.9374,343.34995
84,633929.5481442696,seasonal_calving_id_6_1975_2025.nc,0.00010647685151484178,MAR3.9_CSIRO-Mk3.6_rcp85_ocean_1960-2100_v4.nc,DMI-HIRHAM5_ERA_1975_2021_EPSG3413_4500M_MM.nc,0.00027430056953914485,1.6946057507297214,0.5240546287001242,1.5994328990345186,2.932766,3.3100634,0.88965195,0.018548852,9.123057,40.897476,-509.07092,244.87257
85,392081.9210924657,seasonal_calving_id_0_1975_2025.nc,8.350394902700062e-05,MAR3.9_MIROC-ESM-CHEM_rcp85_ocean_1960-2100_v4.nc,DMI-HIRHAM5_ERA_1975_2021_EPSG3413_4500M_MM.nc,0.0003334282847439662,1.3457807742740744,0.323519911954095,1.8177048283552066,2.8722847,3.319143,0.8135781,0.02254599,7.1966324,41.941162,-220.99028,302.77383
86,433159.2165904428,seasonal_calving_id_0_1975_2025.nc,9.296066562642933e-05,MAR3.9_CSIRO-Mk3.6_rcp85_ocean_1960-2100_v4.nc,DMI-HIRHAM5_ERA_1975_2021_EPSG3413_4500M_MM.nc,0.00033567021646191604,1.5636863420837828,0.5524613931997772,2.0665086982509253,2.6904616,3.2574806,0.86511016,0.017421423,7.8761454,42.95713,-270.8134,333.37756
87,558211.0708781634,seasonal_calving_id_3_1975_2025.nc,8.515628467975718e-05,MAR3.9_IPSL-CM5-MR_rcp85_ocean_1960-2100_v4.nc,MARv3.14-monthly-ERA5-1975_2023.nc,0.00032225661539242185,1.382908247314971,0.5767108893517207,2.6517492787336536,2.8746402,3.2892902,0.88294315,0.019138161,8.794063,44.033054,-248.87314,103.3729
88,587261.8931545699,seasonal_calving_id_4_1975_2025.nc,8.018928034119546e-05,MAR3.9_CSIRO-Mk3.6_rcp85_ocean_1960-2100_v4.nc,DMI-HIRHAM5_ERA_1975_2021_EPSG3413_4500M_MM.nc,0.00025304190298497425,1.3751076208406758,0.31100093768481424,2.134394207100554,2.958412,3.312308,0.63374066,0.016914725,7.6027603,41.611515,-501.85507,72.91244
89,614638.0220409527,seasonal_calving_id_5_1975_2025.nc,0.0001249231443173204,MAR3.9_MIROC-ESM-CHEM_rcp85_ocean_1960-2100_v4.nc,DMI-HIRHAM5_ERA_1975_2021_EPSG3413_4500M_MM.nc,0.00026807260887154385,1.300061635324991,0.4226181674555879,1.6980018409562216,1.9135904,3.290869,0.5950736,0.015304474,9.889001,42.64035,-523.9161,309.47733
90,362263.1699835826,seasonal_calving_id_6_1975_2025.nc,0.00013001412274920806,MAR3.9_IPSL-CM5-MR_rcp85_ocean_1960-2100_v4.nc,MARv3.14-monthly-ERA5-1975_2023.nc,0.0003299370434239648,1.2224342602853353,0.39948809318775397,2.386613471612313,2.8300877,3.2640276,0.7683394,0.018275714,8.301171,42.403343,-391.4648,355.5538
91,415637.04468339495,seasonal_calving_id_4_1975_2025.nc,8.80306875484984e-05,MAR3.9_MIROC-ESM-CHEM_rcp85_ocean_1960-2100_v4.nc,MARv3.14-monthly-ERA5-1975_2023.nc,0.0003049958639261365,1.161906902711706,0.6312479157224845,1.6359889760440114,2.5097075,3.29077,0.768515,0.014139172,7.7602973,43.33295,-394.60785,284.30466
92,405925.43443225644,seasonal_calving_id_1_1975_2025.nc,0.00012178788761414587,MAR3.9_CNRM-ESM2_ssp585_ocean_1960-2100_v4.nc,DMI-HIRHAM5_ERA_1975_2021_EPSG3413_4500M_MM.nc,0.0002656712002623336,1.6755802871042422,0.4426360163955958,2.5703736190648128,2.0567882,3.2949991,0.9147564,0.015439996,5.0055017,42.30811,-435.26898,275.9163
93,617198.036379785,seasonal_calving_id_1_1975_2025.nc,0.00013358795430110193,MAR3.9_MIROC-ESM-CHEM_rcp85_ocean_1960-2100_v4.nc,MARv3.14-monthly-ERA5-1975_2023.nc,0.00034938652991836465,1.5088916946290314,0.4527710073827887,1.3619954989706715,2.3730779,3.2675147,0.74594337,0.013281446,8.755202,43.975292,-347.48328,157.5172
94,631735.7525898824,seasonal_calving_id_2_1975_2025.nc,8.203069866862773e-05,MAR3.9_MIROC-ESM-CHEM_rcp26_ocean_1960-2100_v4.nc,MARv3.14-monthly-ERA5-1975_2023.nc,0.0002719436259013406,1.6150726742745554,0.5606801233821038,2.255580343042972,2.7432399,3.2821083,0.8012508,0.019234532,5.6391053,41.15187,-465.68417,305.73575
95,500037.4499895158,seasonal_calving_id_4_1975_2025.nc,0.00010099613211628211,MAR3.9_ACCESS1-3_rcp85_ocean_1960-2100_v4.nc,DMI-HIRHAM5_ERA_1975_2021_EPSG3413_4500M_MM.nc,0.0003026290979362636,1.5775746292415698,0.37032767038489867,2.1155743930597435,2.554656,3.256263,0.87345654,0.019182412,8.712216,43.525604,-207.08736,189.95117
96,496328.62346910813,seasonal_calving_id_6_1975_2025.nc,0.00012423837171846218,MAR3.9_MIROC-ESM-CHEM_rcp26_ocean_1960-2100_v4.nc,DMI-HIRHAM5_ERA_1975_2021_EPSG3413_4500M_MM.nc,0.000326098069062137,1.2523237549418633,0.4596204829167655,1.722213536064126,2.7421124,3.3069265,0.54179025,0.020538414,10.032622,43.720455,-416.9053,261.13654
97,605279.4193188583,seasonal_calving_id_1_1975_2025.nc,0.00014459817898723791,MAR3.9_NorESM1-M_rcp85_ocean_1960-2100_v4.nc,DMI-HIRHAM5_ERA_1975_2021_EPSG3413_4500M_MM.nc,0.0002596424209325715,1.1261376535802563,0.567809740130315,2.6030992841420284,2.9326339,3.2943926,0.7498455,0.018384596,6.030863,42.872063,-267.35022,148.2289
98,353816.4712893601,seasonal_calving_id_5_1975_2025.nc,0.00012732741820358536,MAR3.9_NorESM1-M_rcp85_ocean_1960-2100_v4.nc,DMI-HIRHAM5_ERA_1975_2021_EPSG3413_4500M_MM.nc,0.00029365101152766687,1.290975602181339,0.517915772145517,1.5018268500337928,3.5551863,3.345769,0.68284357,0.022423936,7.2985744,44.38971,-329.0982,411.2045
99,428838.6068819362,seasonal_calving_id_5_1975_2025.nc,0.00012060104521478796,MAR3.9_CNRM-CM6_ssp585_ocean_1960-2100_v4.nc,MARv3.14-monthly-ERA5-1975_2023.nc,0.00029268029959833217,1.4720449148618393,0.33090042261804903,2.503881629272796,2.6203685,3.3368275,0.72696346,0.017673176,8.773452,42.367443,-534.33563,351.4858
