param,basin,basal_resistance.pseudo_plastic.q,basal_yield_stress.mohr_coulomb.till_effective_fraction_overburden,basal_yield_stress.mohr_coulomb.topg_to_phi.phi_max,basal_yield_stress.mohr_coulomb.topg_to_phi.phi_min,basal_yield_stress.mohr_coulomb.topg_to_phi.topg_max,basal_yield_stress.mohr_coulomb.topg_to_phi.topg_min,calving.rate_scaling.file,calving.vonmises_calving.sigma_max,frontal_melt.routing.parameter_a,frontal_melt.routing.parameter_b,frontal_melt.routing.power_alpha,frontal_melt.routing.power_beta,geometry.front_retreat.prescribed.file,ocean.th.file,ocean.th.gamma_T,stress_balance.sia.enhancement_factor,stress_balance.ssa.Glen_exponent,surface.given.file
1,CW,0.73261654,0.012281087,43.309277,5.4509544,195.7463,-590.17255,0,479308.8423088193,0.000340785359703,1.4884430943988265,0.6321793430484832,1.6643602719530464,0,0,0.0001354809575015,1.9018396,3.299505,0
2,GIS,0.73261654,0.012281087,43.309277,5.4509544,195.7463,-590.17255,0,479308.8423088193,0.000340785359703,1.4884430943988265,0.6321793430484832,1.6643602719530464,0,0,0.0001354809575015,1.9018396,3.299505,0
10,CW,0.5622043,0.017094066,42.94963,5.634074,111.69031,-456.80573,0,508487.8398105502,0.000340785359703,1.4884430943988265,0.6321793430484832,1.6643602719530464,0,0,0.0001354809575015,2.4162629,3.2763512,0
11,GIS,0.5622043,0.017094066,42.94963,5.634074,111.69031,-456.80573,0,508487.8398105502,0.000340785359703,1.4884430943988265,0.6321793430484832,1.6643602719530464,0,0,0.0001354809575015,2.4162629,3.2763512,0
19,CW,0.560466,0.019223697,44.455784,11.704212,329.5564,-438.7894,1,479308.8423088193,0.000340785359703,1.4884430943988265,0.6321793430484832,1.6643602719530464,0,0,0.0001354809575015,3.136221,3.336245,0
20,GIS,0.560466,0.019223697,44.455784,11.704212,329.5564,-438.7894,1,479308.8423088193,0.000340785359703,1.4884430943988265,0.6321793430484832,1.6643602719530464,0,0,0.0001354809575015,3.136221,3.336245,0
28,CW,0.7447561,0.021477517,40.911674,7.238022,472.82956,-436.27835,0,479308.8423088193,0.000340785359703,1.4884430943988265,0.6321793430484832,1.6643602719530464,0,0,0.0001035795122617,2.492242,3.2808692,0
29,GIS,0.7447561,0.021477517,40.911674,7.238022,472.82956,-436.27835,0,479308.8423088193,0.000340785359703,1.4884430943988265,0.6321793430484832,1.6643602719530464,0,0,0.0001035795122617,2.492242,3.2808692,0
37,CW,0.8270116,0.017739672,43.43049,5.4648046,40.88833,-342.17123,0,479308.8423088193,0.000340785359703,1.4884430943988265,0.6321793430484832,1.6643602719530464,0,1,0.0001354809575015,2.8576138,3.331976,0
38,GIS,0.8270116,0.017739672,43.43049,5.4648046,40.88833,-342.17123,0,479308.8423088193,0.000340785359703,1.4884430943988265,0.6321793430484832,1.6643602719530464,0,1,0.0001354809575015,2.8576138,3.331976,0
46,CW,0.73096603,0.021314884,42.7658,6.289281,437.16827,-335.78537,0,479308.8423088193,0.000340785359703,1.4884430943988265,0.6321793430484832,1.6643602719530464,0,0,0.0001354809575015,3.1257145,3.312038,1
47,GIS,0.73096603,0.021314884,42.7658,6.289281,437.16827,-335.78537,0,479308.8423088193,0.000340785359703,1.4884430943988265,0.6321793430484832,1.6643602719530464,0,0,0.0001354809575015,3.1257145,3.312038,1
55,CW,0.69424653,0.018090263,43.27901,12.861543,490.85446,-469.09058,0,479308.8423088193,0.0002835540876165,1.4884430943988265,0.6321793430484832,1.6643602719530464,0,0,0.0001354809575015,2.6631436,3.2792242,0
56,GIS,0.69424653,0.018090263,43.27901,12.861543,490.85446,-469.09058,0,479308.8423088193,0.0002835540876165,1.4884430943988265,0.6321793430484832,1.6643602719530464,0,0,0.0001354809575015,2.6631436,3.2792242,0
64,CW,0.869536,0.016326878,43.487255,8.36098,149.67383,-317.7022,0,479308.8423088193,0.000340785359703,1.053501815162599,0.6321793430484832,1.6643602719530464,0,0,0.0001354809575015,2.407705,3.3725226,0
65,GIS,0.869536,0.016326878,43.487255,8.36098,149.67383,-317.7022,0,479308.8423088193,0.000340785359703,1.053501815162599,0.6321793430484832,1.6643602719530464,0,0,0.0001354809575015,2.407705,3.3725226,0
73,CW,0.8343502,0.017593607,43.03478,6.135306,103.63592,-429.31165,0,479308.8423088193,0.000340785359703,1.4884430943988265,0.4470717678312212,1.6643602719530464,0,0,0.0001354809575015,2.5116012,3.3369913,0
74,GIS,0.8343502,0.017593607,43.03478,6.135306,103.63592,-429.31165,0,479308.8423088193,0.000340785359703,1.4884430943988265,0.4470717678312212,1.6643602719530464,0,0,0.0001354809575015,2.5116012,3.3369913,0
82,CW,0.84433156,0.016457813,44.148453,6.2995763,456.59827,-580.3474,0,479308.8423088193,0.000340785359703,1.4884430943988265,0.6321793430484832,1.6372979394160212,0,0,0.0001354809575015,2.151846,3.3592985,0
83,GIS,0.84433156,0.016457813,44.148453,6.2995763,456.59827,-580.3474,0,479308.8423088193,0.000340785359703,1.4884430943988265,0.6321793430484832,1.6372979394160212,0,0,0.0001354809575015,2.151846,3.3592985,0
91,CW,0.6599801,0.020064717,44.131187,5.677355,365.72778,-534.123,0,479308.8423088193,0.000340785359703,1.4884430943988265,0.6321793430484832,1.6643602719530464,1,0,0.0001354809575015,3.05511,3.3129082,0
92,GIS,0.6599801,0.020064717,44.131187,5.677355,365.72778,-534.123,0,479308.8423088193,0.000340785359703,1.4884430943988265,0.6321793430484832,1.6643602719530464,1,0,0.0001354809575015,3.05511,3.3129082,0
100,CW,0.63956887,0.024293866,43.31905,9.928174,384.8781,-257.3244,1,479308.8423088193,0.0002835540876165,1.053501815162599,0.4470717678312212,1.6372979394160212,1,1,0.0001035795122617,2.8082726,3.326176,1
101,GIS,0.63956887,0.024293866,43.31905,9.928174,384.8781,-257.3244,1,479308.8423088193,0.0002835540876165,1.053501815162599,0.4470717678312212,1.6372979394160212,1,1,0.0001035795122617,2.8082726,3.326176,1
109,CW,0.7994166,0.019153971,43.163532,8.173192,361.98303,-369.4174,0,508487.8398105502,0.0002835540876165,1.053501815162599,0.4470717678312212,1.6372979394160212,1,1,0.0001035795122617,2.3332887,3.3316998,1
110,GIS,0.7994166,0.019153971,43.163532,8.173192,361.98303,-369.4174,0,508487.8398105502,0.0002835540876165,1.053501815162599,0.4470717678312212,1.6372979394160212,1,1,0.0001035795122617,2.3332887,3.3316998,1
118,CW,0.6998829,0.015322144,43.747314,7.689975,182.25523,-381.71884,1,508487.8398105502,0.0002835540876165,1.053501815162599,0.4470717678312212,1.6372979394160212,1,1,0.0001354809575015,2.9580874,3.3215408,1
119,GIS,0.6998829,0.015322144,43.747314,7.689975,182.25523,-381.71884,1,508487.8398105502,0.0002835540876165,1.053501815162599,0.4470717678312212,1.6372979394160212,1,1,0.0001354809575015,2.9580874,3.3215408,1
127,CW,0.59805226,0.01832593,41.234833,7.154369,322.68228,-386.7738,1,508487.8398105502,0.0002835540876165,1.053501815162599,0.4470717678312212,1.6372979394160212,1,0,0.0001035795122617,2.5885754,3.254612,1
128,GIS,0.59805226,0.01832593,41.234833,7.154369,322.68228,-386.7738,1,508487.8398105502,0.0002835540876165,1.053501815162599,0.4470717678312212,1.6372979394160212,1,0,0.0001035795122617,2.5885754,3.254612,1
136,CW,0.67273545,0.023206301,42.501717,7.437249,346.2098,-309.7118,1,508487.8398105502,0.0002835540876165,1.053501815162599,0.4470717678312212,1.6372979394160212,1,1,0.0001035795122617,2.7758946,3.2711656,0
137,GIS,0.67273545,0.023206301,42.501717,7.437249,346.2098,-309.7118,1,508487.8398105502,0.0002835540876165,1.053501815162599,0.4470717678312212,1.6372979394160212,1,1,0.0001035795122617,2.7758946,3.2711656,0
145,CW,0.6529221,0.019971784,44.414574,8.846604,339.25058,-362.5191,1,508487.8398105502,0.000340785359703,1.053501815162599,0.4470717678312212,1.6372979394160212,1,1,0.0001035795122617,2.9340892,3.3310497,1
146,GIS,0.6529221,0.019971784,44.414574,8.846604,339.25058,-362.5191,1,508487.8398105502,0.000340785359703,1.053501815162599,0.4470717678312212,1.6372979394160212,1,1,0.0001035795122617,2.9340892,3.3310497,1
154,CW,0.7676727,0.01968407,43.64022,6.001401,559.15326,-472.56372,1,508487.8398105502,0.0002835540876165,1.4884430943988265,0.4470717678312212,1.6372979394160212,1,1,0.0001035795122617,2.5979307,3.3391035,1
155,GIS,0.7676727,0.01968407,43.64022,6.001401,559.15326,-472.56372,1,508487.8398105502,0.0002835540876165,1.4884430943988265,0.4470717678312212,1.6372979394160212,1,1,0.0001035795122617,2.5979307,3.3391035,1
163,CW,0.6806189,0.02452333,41.83306,6.73502,296.086,-425.09744,1,508487.8398105502,0.0002835540876165,1.053501815162599,0.6321793430484832,1.6372979394160212,1,1,0.0001035795122617,3.0430267,3.3014345,1
164,GIS,0.6806189,0.02452333,41.83306,6.73502,296.086,-425.09744,1,508487.8398105502,0.0002835540876165,1.053501815162599,0.6321793430484832,1.6372979394160212,1,1,0.0001035795122617,3.0430267,3.3014345,1
172,CW,0.770027,0.02014358,41.04809,5.4201846,223.30917,-418.95618,1,508487.8398105502,0.0002835540876165,1.053501815162599,0.4470717678312212,1.6643602719530464,1,1,0.0001035795122617,2.6303747,3.2988615,1
173,GIS,0.770027,0.02014358,41.04809,5.4201846,223.30917,-418.95618,1,508487.8398105502,0.0002835540876165,1.053501815162599,0.4470717678312212,1.6643602719530464,1,1,0.0001035795122617,2.6303747,3.2988615,1
181,CW,0.76702905,0.0131452875,43.17074,6.7491264,137.88612,-548.3707,1,508487.8398105502,0.0002835540876165,1.053501815162599,0.4470717678312212,1.6372979394160212,0,1,0.0001035795122617,2.5763626,3.321745,1
182,GIS,0.76702905,0.0131452875,43.17074,6.7491264,137.88612,-548.3707,1,508487.8398105502,0.0002835540876165,1.053501815162599,0.4470717678312212,1.6372979394160212,0,1,0.0001035795122617,2.5763626,3.321745,1
190,CW,0.7231161,0.023507794,43.24007,6.9278307,174.65208,-345.4385,1,508487.8398105502,0.0002835540876165,1.053501815162599,0.4470717678312212,1.6372979394160212,1,1,0.0001035795122617,3.3130395,3.3096964,1
191,GIS,0.7231161,0.023507794,43.24007,6.9278307,174.65208,-345.4385,1,508487.8398105502,0.0002835540876165,1.053501815162599,0.4470717678312212,1.6372979394160212,1,1,0.0001035795122617,3.3130395,3.3096964,1
199,CW,0.7062974,0.018032813,40.764713,8.1454315,118.84116,-395.9113,2,565945.6974826753,0.0002721012715995,1.312901722174138,0.314844558481127,1.3895526736043395,1,2,9.698087268043308e-05,2.8007314,3.318617,2
200,GIS,0.7062974,0.018032813,40.764713,8.1454315,118.84116,-395.9113,2,565945.6974826753,0.0002721012715995,1.312901722174138,0.314844558481127,1.3895526736043395,1,2,9.698087268043308e-05,2.8007314,3.318617,2
208,CW,0.75257844,0.018372484,42.3587,6.1714015,207.0219,-371.18,2,367424.534726888,0.0002721012715995,1.312901722174138,0.314844558481127,1.3895526736043395,1,2,9.698087268043308e-05,2.1111052,3.25631,2
209,GIS,0.75257844,0.018372484,42.3587,6.1714015,207.0219,-371.18,2,367424.534726888,0.0002721012715995,1.312901722174138,0.314844558481127,1.3895526736043395,1,2,9.698087268043308e-05,2.1111052,3.25631,2
217,CW,0.8597179,0.018155115,44.176006,6.165745,293.3352,-341.52554,3,565945.6974826753,0.0002721012715995,1.312901722174138,0.314844558481127,1.3895526736043395,1,2,9.698087268043308e-05,2.4853466,3.2488122,2
218,GIS,0.8597179,0.018155115,44.176006,6.165745,293.3352,-341.52554,3,565945.6974826753,0.0002721012715995,1.312901722174138,0.314844558481127,1.3895526736043395,1,2,9.698087268043308e-05,2.4853466,3.2488122,2
226,CW,0.80703604,0.015546679,41.81485,6.1951694,176.87662,-528.6967,2,565945.6974826753,0.0002721012715995,1.312901722174138,0.314844558481127,1.3895526736043395,1,2,0.0001486029092688,2.8067822,3.3699446,2
227,GIS,0.80703604,0.015546679,41.81485,6.1951694,176.87662,-528.6967,2,565945.6974826753,0.0002721012715995,1.312901722174138,0.314844558481127,1.3895526736043395,1,2,0.0001486029092688,2.8067822,3.3699446,2
235,CW,0.6490742,0.018007616,41.905804,7.9218354,394.7674,-439.27322,2,565945.6974826753,0.0002721012715995,1.312901722174138,0.314844558481127,1.3895526736043395,1,3,9.698087268043308e-05,2.5617654,3.2238953,2
236,GIS,0.6490742,0.018007616,41.905804,7.9218354,394.7674,-439.27322,2,565945.6974826753,0.0002721012715995,1.312901722174138,0.314844558481127,1.3895526736043395,1,3,9.698087268043308e-05,2.5617654,3.2238953,2
244,CW,0.8244634,0.025293073,43.67215,5.377551,438.13712,-226.5174,2,565945.6974826753,0.0002721012715995,1.312901722174138,0.314844558481127,1.3895526736043395,1,2,9.698087268043308e-05,2.6471748,3.2612464,1
245,GIS,0.8244634,0.025293073,43.67215,5.377551,438.13712,-226.5174,2,565945.6974826753,0.0002721012715995,1.312901722174138,0.314844558481127,1.3895526736043395,1,2,9.698087268043308e-05,2.6471748,3.2612464,1
253,CW,0.71547097,0.016378218,41.138844,6.210064,313.57425,-504.52817,2,565945.6974826753,0.0003538843152299,1.312901722174138,0.314844558481127,1.3895526736043395,1,2,9.698087268043308e-05,2.4047859,3.3310804,2
254,GIS,0.71547097,0.016378218,41.138844,6.210064,313.57425,-504.52817,2,565945.6974826753,0.0003538843152299,1.312901722174138,0.314844558481127,1.3895526736043395,1,2,9.698087268043308e-05,2.4047859,3.3310804,2
262,CW,0.779391,0.01795696,43.97208,7.832698,103.330475,-317.36685,2,565945.6974826753,0.0002721012715995,1.6545558221638204,0.314844558481127,1.3895526736043395,1,2,9.698087268043308e-05,2.9089913,3.2576287,2
263,GIS,0.779391,0.01795696,43.97208,7.832698,103.330475,-317.36685,2,565945.6974826753,0.0002721012715995,1.6545558221638204,0.314844558481127,1.3895526736043395,1,2,9.698087268043308e-05,2.9089913,3.2576287,2
271,CW,0.5825137,0.017019784,41.47611,5.7485228,279.9592,-611.679,2,565945.6974826753,0.0002721012715995,1.312901722174138,0.7856467526871711,1.3895526736043395,1,2,9.698087268043308e-05,2.6367874,3.3377182,2
272,GIS,0.5825137,0.017019784,41.47611,5.7485228,279.9592,-611.679,2,565945.6974826753,0.0002721012715995,1.312901722174138,0.7856467526871711,1.3895526736043395,1,2,9.698087268043308e-05,2.6367874,3.3377182,2
280,CW,0.8274615,0.01631564,41.86607,5.9554324,102.79031,-253.64445,2,565945.6974826753,0.0002721012715995,1.312901722174138,0.314844558481127,1.330352897848934,1,2,9.698087268043308e-05,2.8077953,3.3163323,2
281,GIS,0.8274615,0.01631564,41.86607,5.9554324,102.79031,-253.64445,2,565945.6974826753,0.0002721012715995,1.312901722174138,0.314844558481127,1.330352897848934,1,2,9.698087268043308e-05,2.8077953,3.3163323,2
289,CW,0.7863442,0.021737613,41.780968,5.6929107,433.88925,-270.0659,2,565945.6974826753,0.0002721012715995,1.312901722174138,0.314844558481127,1.3895526736043395,0,2,9.698087268043308e-05,2.821701,3.357653,2
290,GIS,0.7863442,0.021737613,41.780968,5.6929107,433.88925,-270.0659,2,565945.6974826753,0.0002721012715995,1.312901722174138,0.314844558481127,1.3895526736043395,0,2,9.698087268043308e-05,2.821701,3.357653,2
298,CW,0.8121898,0.018062571,44.085243,7.968687,352.8924,-326.33286,3,565945.6974826753,0.0003538843152299,1.6545558221638204,0.7856467526871711,1.330352897848934,0,3,0.0001486029092688,2.5038452,3.306564,1
299,GIS,0.8121898,0.018062571,44.085243,7.968687,352.8924,-326.33286,3,565945.6974826753,0.0003538843152299,1.6545558221638204,0.7856467526871711,1.330352897848934,0,3,0.0001486029092688,2.5038452,3.306564,1
307,CW,0.785381,0.014593289,42.8153,8.111932,157.95955,-350.40298,2,367424.534726888,0.0003538843152299,1.6545558221638204,0.7856467526871711,1.330352897848934,0,3,0.0001486029092688,2.2824638,3.3577437,1
308,GIS,0.785381,0.014593289,42.8153,8.111932,157.95955,-350.40298,2,367424.534726888,0.0003538843152299,1.6545558221638204,0.7856467526871711,1.330352897848934,0,3,0.0001486029092688,2.2824638,3.3577437,1
316,CW,0.63091004,0.016243938,43.54651,5.9718294,341.72607,-548.7274,3,367424.534726888,0.0003538843152299,1.6545558221638204,0.7856467526871711,1.330352897848934,0,3,9.698087268043308e-05,2.3191369,3.2905662,1
317,GIS,0.63091004,0.016243938,43.54651,5.9718294,341.72607,-548.7274,3,367424.534726888,0.0003538843152299,1.6545558221638204,0.7856467526871711,1.330352897848934,0,3,9.698087268043308e-05,2.3191369,3.2905662,1
325,CW,0.6197862,0.021605026,43.473923,5.278085,268.8283,-348.77948,3,367424.534726888,0.0003538843152299,1.6545558221638204,0.7856467526871711,1.330352897848934,0,2,0.0001486029092688,2.8585737,3.2857969,1
326,GIS,0.6197862,0.021605026,43.473923,5.278085,268.8283,-348.77948,3,367424.534726888,0.0003538843152299,1.6545558221638204,0.7856467526871711,1.330352897848934,0,2,0.0001486029092688,2.8585737,3.2857969,1
334,CW,0.7791554,0.022220211,41.64653,6.181814,462.9656,-294.5763,3,367424.534726888,0.0003538843152299,1.6545558221638204,0.7856467526871711,1.330352897848934,0,3,0.0001486029092688,2.7057621,3.254785,2
335,GIS,0.7791554,0.022220211,41.64653,6.181814,462.9656,-294.5763,3,367424.534726888,0.0003538843152299,1.6545558221638204,0.7856467526871711,1.330352897848934,0,3,0.0001486029092688,2.7057621,3.254785,2
343,CW,0.7994252,0.021664672,43.067677,5.486793,237.14432,-268.342,3,367424.534726888,0.0002721012715995,1.6545558221638204,0.7856467526871711,1.330352897848934,0,3,0.0001486029092688,3.4179046,3.3172698,1
344,GIS,0.7994252,0.021664672,43.067677,5.486793,237.14432,-268.342,3,367424.534726888,0.0002721012715995,1.6545558221638204,0.7856467526871711,1.330352897848934,0,3,0.0001486029092688,3.4179046,3.3172698,1
352,CW,0.72910804,0.022894735,42.49673,9.491881,239.57056,-140.6659,3,367424.534726888,0.0003538843152299,1.312901722174138,0.7856467526871711,1.330352897848934,0,3,0.0001486029092688,2.552077,3.2157302,1
353,GIS,0.72910804,0.022894735,42.49673,9.491881,239.57056,-140.6659,3,367424.534726888,0.0003538843152299,1.312901722174138,0.7856467526871711,1.330352897848934,0,3,0.0001486029092688,2.552077,3.2157302,1
361,CW,0.6109272,0.018125335,42.483047,5.8432336,252.59816,-388.032,3,367424.534726888,0.0003538843152299,1.6545558221638204,0.314844558481127,1.330352897848934,0,3,0.0001486029092688,2.4561179,3.2728937,1
362,GIS,0.6109272,0.018125335,42.483047,5.8432336,252.59816,-388.032,3,367424.534726888,0.0003538843152299,1.6545558221638204,0.314844558481127,1.330352897848934,0,3,0.0001486029092688,2.4561179,3.2728937,1
370,CW,0.6350083,0.01760648,41.406963,7.7201552,232.86467,-495.86475,3,367424.534726888,0.0003538843152299,1.6545558221638204,0.7856467526871711,1.3895526736043395,0,3,0.0001486029092688,2.306663,3.2939749,1
371,GIS,0.6350083,0.01760648,41.406963,7.7201552,232.86467,-495.86475,3,367424.534726888,0.0003538843152299,1.6545558221638204,0.7856467526871711,1.3895526736043395,0,3,0.0001486029092688,2.306663,3.2939749,1
379,CW,0.6134214,0.025474064,42.447178,6.2965865,383.04373,-420.09833,3,367424.534726888,0.0003538843152299,1.6545558221638204,0.7856467526871711,1.330352897848934,1,3,0.0001486029092688,2.9743917,3.3072205,1
380,GIS,0.6134214,0.025474064,42.447178,6.2965865,383.04373,-420.09833,3,367424.534726888,0.0003538843152299,1.6545558221638204,0.7856467526871711,1.330352897848934,1,3,0.0001486029092688,2.9743917,3.3072205,1
388,CW,0.81331563,0.01635883,41.928802,8.644326,204.6762,-270.47522,3,367424.534726888,0.0003538843152299,1.6545558221638204,0.7856467526871711,1.330352897848934,0,3,0.0001486029092688,2.6388135,3.2931907,1
389,GIS,0.81331563,0.01635883,41.928802,8.644326,204.6762,-270.47522,3,367424.534726888,0.0003538843152299,1.6545558221638204,0.7856467526871711,1.330352897848934,0,3,0.0001486029092688,2.6388135,3.2931907,1
397,CW,0.6814492,0.021681523,43.178192,5.2621565,198.5068,-417.86072,4,579479.6762987971,0.0002548187537491,1.563201609440148,0.5003241998143494,1.1760984194464985,1,4,0.0001168982222909,2.940292,3.3071723,1
398,GIS,0.6814492,0.021681523,43.178192,5.2621565,198.5068,-417.86072,4,579479.6762987971,0.0002548187537491,1.563201609440148,0.5003241998143494,1.1760984194464985,1,4,0.0001168982222909,2.940292,3.3071723,1
406,CW,0.8439827,0.017693631,42.3923,9.366275,85.49043,-159.48526,4,467002.091743052,0.0002548187537491,1.563201609440148,0.5003241998143494,1.1760984194464985,1,4,0.0001168982222909,2.5487032,3.3251727,1
407,GIS,0.8439827,0.017693631,42.3923,9.366275,85.49043,-159.48526,4,467002.091743052,0.0002548187537491,1.563201609440148,0.5003241998143494,1.1760984194464985,1,4,0.0001168982222909,2.5487032,3.3251727,1
415,CW,0.82429594,0.017502425,41.555553,5.469476,250.64558,-348.69754,5,579479.6762987971,0.0002548187537491,1.563201609440148,0.5003241998143494,1.1760984194464985,1,4,0.0001168982222909,2.359279,3.306852,1
416,GIS,0.82429594,0.017502425,41.555553,5.469476,250.64558,-348.69754,5,579479.6762987971,0.0002548187537491,1.563201609440148,0.5003241998143494,1.1760984194464985,1,4,0.0001168982222909,2.359279,3.306852,1
424,CW,0.78694344,0.02045508,42.48793,6.4246435,179.90923,-254.73293,4,579479.6762987971,0.0002548187537491,1.563201609440148,0.5003241998143494,1.1760984194464985,1,4,8.501118638087063e-05,3.0040023,3.2951822,1
425,GIS,0.78694344,0.02045508,42.48793,6.4246435,179.90923,-254.73293,4,579479.6762987971,0.0002548187537491,1.563201609440148,0.5003241998143494,1.1760984194464985,1,4,8.501118638087063e-05,3.0040023,3.2951822,1
433,CW,0.78371006,0.019168943,40.586514,10.558539,155.88412,-187.52866,4,579479.6762987971,0.0002548187537491,1.563201609440148,0.5003241998143494,1.1760984194464985,1,2,0.0001168982222909,3.0759878,3.352933,1
434,GIS,0.78371006,0.019168943,40.586514,10.558539,155.88412,-187.52866,4,579479.6762987971,0.0002548187537491,1.563201609440148,0.5003241998143494,1.1760984194464985,1,2,0.0001168982222909,3.0759878,3.352933,1
442,CW,0.7973704,0.023189273,40.492855,5.288221,380.91205,-397.8318,4,579479.6762987971,0.0002548187537491,1.563201609440148,0.5003241998143494,1.1760984194464985,1,4,0.0001168982222909,2.8123708,3.3116148,2
443,GIS,0.7973704,0.023189273,40.492855,5.288221,380.91205,-397.8318,4,579479.6762987971,0.0002548187537491,1.563201609440148,0.5003241998143494,1.1760984194464985,1,4,0.0001168982222909,2.8123708,3.3116148,2
451,CW,0.7621096,0.019482264,41.886597,8.5964985,23.15068,-301.95764,4,579479.6762987971,0.0002631688461452,1.563201609440148,0.5003241998143494,1.1760984194464985,1,4,0.0001168982222909,2.261076,3.2792754,1
452,GIS,0.7621096,0.019482264,41.886597,8.5964985,23.15068,-301.95764,4,579479.6762987971,0.0002631688461452,1.563201609440148,0.5003241998143494,1.1760984194464985,1,4,0.0001168982222909,2.261076,3.2792754,1
460,CW,0.6685717,0.016860645,41.678825,9.847212,283.99274,-317.01843,4,579479.6762987971,0.0002548187537491,1.4437985537573694,0.5003241998143494,1.1760984194464985,1,4,0.0001168982222909,2.5976207,3.2956398,1
461,GIS,0.6685717,0.016860645,41.678825,9.847212,283.99274,-317.01843,4,579479.6762987971,0.0002548187537491,1.4437985537573694,0.5003241998143494,1.1760984194464985,1,4,0.0001168982222909,2.5976207,3.2956398,1
469,CW,0.6271727,0.018338893,43.912643,7.4012136,146.90344,-381.4266,4,579479.6762987971,0.0002548187537491,1.563201609440148,0.3282742295879871,1.1760984194464985,1,4,0.0001168982222909,2.9638362,3.257493,1
470,GIS,0.6271727,0.018338893,43.912643,7.4012136,146.90344,-381.4266,4,579479.6762987971,0.0002548187537491,1.563201609440148,0.3282742295879871,1.1760984194464985,1,4,0.0001168982222909,2.9638362,3.257493,1
478,CW,0.79626197,0.01971684,44.572624,12.195057,319.57657,-178.1917,4,579479.6762987971,0.0002548187537491,1.563201609440148,0.5003241998143494,1.1781250911764802,1,4,0.0001168982222909,2.4526386,3.3707342,1
479,GIS,0.79626197,0.01971684,44.572624,12.195057,319.57657,-178.1917,4,579479.6762987971,0.0002548187537491,1.563201609440148,0.5003241998143494,1.1781250911764802,1,4,0.0001168982222909,2.4526386,3.3707342,1
487,CW,0.60431004,0.02005534,43.86536,5.9821,345.28787,-450.6834,4,579479.6762987971,0.0002548187537491,1.563201609440148,0.5003241998143494,1.1760984194464985,1,4,0.0001168982222909,2.3270488,3.2540205,1
488,GIS,0.60431004,0.02005534,43.86536,5.9821,345.28787,-450.6834,4,579479.6762987971,0.0002548187537491,1.563201609440148,0.5003241998143494,1.1760984194464985,1,4,0.0001168982222909,2.3270488,3.2540205,1
496,CW,0.7111011,0.021893641,41.3433,8.948087,260.81015,-264.7348,5,579479.6762987971,0.0002631688461452,1.4437985537573694,0.3282742295879871,1.1781250911764802,1,2,8.501118638087063e-05,2.6157336,3.2508154,2
497,GIS,0.7111011,0.021893641,41.3433,8.948087,260.81015,-264.7348,5,579479.6762987971,0.0002631688461452,1.4437985537573694,0.3282742295879871,1.1781250911764802,1,2,8.501118638087063e-05,2.6157336,3.2508154,2
505,CW,0.8289433,0.024876907,43.44649,6.0629177,349.86298,-218.37706,4,467002.091743052,0.0002631688461452,1.4437985537573694,0.3282742295879871,1.1781250911764802,1,2,8.501118638087063e-05,2.900021,3.3067565,2
506,GIS,0.8289433,0.024876907,43.44649,6.0629177,349.86298,-218.37706,4,467002.091743052,0.0002631688461452,1.4437985537573694,0.3282742295879871,1.1781250911764802,1,2,8.501118638087063e-05,2.900021,3.3067565,2
514,CW,0.7959873,0.027532987,44.487316,6.14097,560.59454,-331.09067,5,467002.091743052,0.0002631688461452,1.4437985537573694,0.3282742295879871,1.1781250911764802,1,2,0.0001168982222909,2.3680532,3.3216474,2
515,GIS,0.7959873,0.027532987,44.487316,6.14097,560.59454,-331.09067,5,467002.091743052,0.0002631688461452,1.4437985537573694,0.3282742295879871,1.1781250911764802,1,2,0.0001168982222909,2.3680532,3.3216474,2
523,CW,0.6930229,0.020962112,42.726566,6.175308,187.62834,-325.31375,5,467002.091743052,0.0002631688461452,1.4437985537573694,0.3282742295879871,1.1781250911764802,1,4,8.501118638087063e-05,3.1217666,3.2597291,2
524,GIS,0.6930229,0.020962112,42.726566,6.175308,187.62834,-325.31375,5,467002.091743052,0.0002631688461452,1.4437985537573694,0.3282742295879871,1.1781250911764802,1,4,8.501118638087063e-05,3.1217666,3.2597291,2
532,CW,0.656099,0.016183356,41.013485,5.8510866,94.62421,-471.1319,5,467002.091743052,0.0002631688461452,1.4437985537573694,0.3282742295879871,1.1781250911764802,1,2,8.501118638087063e-05,1.914408,3.31414,1
533,GIS,0.656099,0.016183356,41.013485,5.8510866,94.62421,-471.1319,5,467002.091743052,0.0002631688461452,1.4437985537573694,0.3282742295879871,1.1781250911764802,1,2,8.501118638087063e-05,1.914408,3.31414,1
541,CW,0.57943255,0.015086862,42.90759,6.486428,205.44183,-593.40735,5,467002.091743052,0.0002548187537491,1.4437985537573694,0.3282742295879871,1.1781250911764802,1,2,8.501118638087063e-05,2.8954992,3.336923,2
542,GIS,0.57943255,0.015086862,42.90759,6.486428,205.44183,-593.40735,5,467002.091743052,0.0002548187537491,1.4437985537573694,0.3282742295879871,1.1781250911764802,1,2,8.501118638087063e-05,2.8954992,3.336923,2
550,CW,0.7253988,0.01483164,42.96996,7.178998,155.1859,-380.1397,5,467002.091743052,0.0002631688461452,1.563201609440148,0.3282742295879871,1.1781250911764802,1,2,8.501118638087063e-05,2.8729355,3.3044684,2
551,GIS,0.7253988,0.01483164,42.96996,7.178998,155.1859,-380.1397,5,467002.091743052,0.0002631688461452,1.563201609440148,0.3282742295879871,1.1781250911764802,1,2,8.501118638087063e-05,2.8729355,3.3044684,2
559,CW,0.7508123,0.022346733,43.629307,7.722137,562.0068,-401.255,5,467002.091743052,0.0002631688461452,1.4437985537573694,0.5003241998143494,1.1781250911764802,1,2,8.501118638087063e-05,3.1362941,3.3431551,2
560,GIS,0.7508123,0.022346733,43.629307,7.722137,562.0068,-401.255,5,467002.091743052,0.0002631688461452,1.4437985537573694,0.5003241998143494,1.1781250911764802,1,2,8.501118638087063e-05,3.1362941,3.3431551,2
568,CW,0.60799646,0.015136137,42.99333,5.1737747,220.75656,-450.40726,5,467002.091743052,0.0002631688461452,1.4437985537573694,0.3282742295879871,1.1760984194464985,1,2,8.501118638087063e-05,2.103149,3.2540836,2
569,GIS,0.60799646,0.015136137,42.99333,5.1737747,220.75656,-450.40726,5,467002.091743052,0.0002631688461452,1.4437985537573694,0.3282742295879871,1.1760984194464985,1,2,8.501118638087063e-05,2.103149,3.2540836,2
577,CW,0.911486,0.015282484,42.715424,6.5869246,225.50778,-345.2671,5,467002.091743052,0.0002631688461452,1.4437985537573694,0.3282742295879871,1.1781250911764802,1,2,8.501118638087063e-05,2.0137,3.2529478,2
578,GIS,0.911486,0.015282484,42.715424,6.5869246,225.50778,-345.2671,5,467002.091743052,0.0002631688461452,1.4437985537573694,0.3282742295879871,1.1781250911764802,1,2,8.501118638087063e-05,2.0137,3.2529478,2
586,CW,0.61058426,0.016479842,44.53853,5.9254127,307.39246,-477.15186,5,467002.091743052,0.0002631688461452,1.4437985537573694,0.3282742295879871,1.1781250911764802,1,2,8.501118638087063e-05,2.6614492,3.3155997,2
587,GIS,0.61058426,0.016479842,44.53853,5.9254127,307.39246,-477.15186,5,467002.091743052,0.0002631688461452,1.4437985537573694,0.3282742295879871,1.1781250911764802,1,2,8.501118638087063e-05,2.6614492,3.3155997,2
595,CW,0.7163474,0.015421648,44.54141,8.631423,172.62677,-339.19122,3,375503.8294009864,0.0003060437282547,1.0361368326470255,0.7152568069286644,1.6149727292358875,0,1,7.806360789109021e-05,2.5604188,3.3089137,0
596,GIS,0.7163474,0.015421648,44.54141,8.631423,172.62677,-339.19122,3,375503.8294009864,0.0003060437282547,1.0361368326470255,0.7152568069286644,1.6149727292358875,0,1,7.806360789109021e-05,2.5604188,3.3089137,0
604,CW,0.60084456,0.018315807,41.081837,6.5493207,377.042,-493.36874,3,624471.6607965529,0.0003060437282547,1.0361368326470255,0.7152568069286644,1.6149727292358875,0,1,7.806360789109021e-05,2.2853131,3.2893016,0
605,GIS,0.60084456,0.018315807,41.081837,6.5493207,377.042,-493.36874,3,624471.6607965529,0.0003060437282547,1.0361368326470255,0.7152568069286644,1.6149727292358875,0,1,7.806360789109021e-05,2.2853131,3.2893016,0
613,CW,0.827454,0.017245008,42.710167,5.5655603,299.3898,-458.36133,6,375503.8294009864,0.0003060437282547,1.0361368326470255,0.7152568069286644,1.6149727292358875,0,1,7.806360789109021e-05,2.7732677,3.3164966,0
614,GIS,0.827454,0.017245008,42.710167,5.5655603,299.3898,-458.36133,6,375503.8294009864,0.0003060437282547,1.0361368326470255,0.7152568069286644,1.6149727292358875,0,1,7.806360789109021e-05,2.7732677,3.3164966,0
622,CW,0.79368365,0.018971333,43.388607,6.397544,225.96637,-377.3504,3,375503.8294009864,0.0003060437282547,1.0361368326470255,0.7152568069286644,1.6149727292358875,0,1,0.0001290870164986,2.5124335,3.3277483,0
623,GIS,0.79368365,0.018971333,43.388607,6.397544,225.96637,-377.3504,3,375503.8294009864,0.0003060437282547,1.0361368326470255,0.7152568069286644,1.6149727292358875,0,1,0.0001290870164986,2.5124335,3.3277483,0
631,CW,0.79390025,0.013777236,44.0345,5.9129167,121.263016,-443.89194,3,375503.8294009864,0.0003060437282547,1.0361368326470255,0.7152568069286644,1.6149727292358875,0,0,7.806360789109021e-05,1.7473508,3.3276353,0
632,GIS,0.79390025,0.013777236,44.0345,5.9129167,121.263016,-443.89194,3,375503.8294009864,0.0003060437282547,1.0361368326470255,0.7152568069286644,1.6149727292358875,0,0,7.806360789109021e-05,1.7473508,3.3276353,0
640,CW,0.5972873,0.0217113,41.69646,7.742416,191.20107,-288.09213,3,375503.8294009864,0.0003060437282547,1.0361368326470255,0.7152568069286644,1.6149727292358875,0,1,7.806360789109021e-05,2.3373346,3.2751715,0
641,GIS,0.5972873,0.0217113,41.69646,7.742416,191.20107,-288.09213,3,375503.8294009864,0.0003060437282547,1.0361368326470255,0.7152568069286644,1.6149727292358875,0,1,7.806360789109021e-05,2.3373346,3.2751715,0
649,CW,0.7825914,0.019601999,42.048878,5.6677527,340.18936,-417.07437,3,375503.8294009864,0.0003147419712692,1.0361368326470255,0.7152568069286644,1.6149727292358875,0,1,7.806360789109021e-05,3.2157388,3.2680857,0
650,GIS,0.7825914,0.019601999,42.048878,5.6677527,340.18936,-417.07437,3,375503.8294009864,0.0003147419712692,1.0361368326470255,0.7152568069286644,1.6149727292358875,0,1,7.806360789109021e-05,3.2157388,3.2680857,0
658,CW,0.5985717,0.019876054,42.210533,7.9754457,335.59503,-489.36838,3,375503.8294009864,0.0003060437282547,1.2590411633253098,0.7152568069286644,1.6149727292358875,0,1,7.806360789109021e-05,2.9153855,3.2993138,0
659,GIS,0.5985717,0.019876054,42.210533,7.9754457,335.59503,-489.36838,3,375503.8294009864,0.0003060437282547,1.2590411633253098,0.7152568069286644,1.6149727292358875,0,1,7.806360789109021e-05,2.9153855,3.2993138,0
667,CW,0.73974246,0.018643148,41.620773,8.030151,42.404095,-395.9839,3,375503.8294009864,0.0003060437282547,1.0361368326470255,0.6681077735964209,1.6149727292358875,0,1,7.806360789109021e-05,2.7369695,3.2545044,0
668,GIS,0.73974246,0.018643148,41.620773,8.030151,42.404095,-395.9839,3,375503.8294009864,0.0003060437282547,1.0361368326470255,0.6681077735964209,1.6149727292358875,0,1,7.806360789109021e-05,2.7369695,3.2545044,0
676,CW,0.83619905,0.02355793,43.760254,6.1505613,390.04117,-295.33902,3,375503.8294009864,0.0003060437282547,1.0361368326470255,0.7152568069286644,1.4850701848976315,0,1,7.806360789109021e-05,2.7704663,3.3471594,0
677,GIS,0.83619905,0.02355793,43.760254,6.1505613,390.04117,-295.33902,3,375503.8294009864,0.0003060437282547,1.0361368326470255,0.7152568069286644,1.4850701848976315,0,1,7.806360789109021e-05,2.7704663,3.3471594,0
685,CW,0.61875784,0.019900527,41.210415,6.051644,177.075,-480.8551,3,375503.8294009864,0.0003060437282547,1.0361368326470255,0.7152568069286644,1.6149727292358875,0,1,7.806360789109021e-05,2.9068727,3.280275,0
686,GIS,0.61875784,0.019900527,41.210415,6.051644,177.075,-480.8551,3,375503.8294009864,0.0003060437282547,1.0361368326470255,0.7152568069286644,1.6149727292358875,0,1,7.806360789109021e-05,2.9068727,3.280275,0
694,CW,0.84120256,0.017982299,44.253105,8.153284,141.43918,-326.51044,6,375503.8294009864,0.0003147419712692,1.2590411633253098,0.6681077735964209,1.4850701848976315,0,0,0.0001290870164986,2.5455399,3.3450246,0
695,GIS,0.84120256,0.017982299,44.253105,8.153284,141.43918,-326.51044,6,375503.8294009864,0.0003147419712692,1.2590411633253098,0.6681077735964209,1.4850701848976315,0,0,0.0001290870164986,2.5455399,3.3450246,0
703,CW,0.7284783,0.015890637,42.22628,5.2918887,271.94617,-547.5034,3,624471.6607965529,0.0003147419712692,1.2590411633253098,0.6681077735964209,1.4850701848976315,0,0,0.0001290870164986,2.4074688,3.3042204,0
704,GIS,0.7284783,0.015890637,42.22628,5.2918887,271.94617,-547.5034,3,624471.6607965529,0.0003147419712692,1.2590411633253098,0.6681077735964209,1.4850701848976315,0,0,0.0001290870164986,2.4074688,3.3042204,0
712,CW,0.67879844,0.02347744,40.614113,9.100996,450.70734,-469.9382,6,624471.6607965529,0.0003147419712692,1.2590411633253098,0.6681077735964209,1.4850701848976315,0,0,7.806360789109021e-05,2.3042762,3.331822,0
713,GIS,0.67879844,0.02347744,40.614113,9.100996,450.70734,-469.9382,6,624471.6607965529,0.0003147419712692,1.2590411633253098,0.6681077735964209,1.4850701848976315,0,0,7.806360789109021e-05,2.3042762,3.331822,0
721,CW,0.7435218,0.02034073,43.628494,5.6884227,180.06583,-319.7689,6,624471.6607965529,0.0003147419712692,1.2590411633253098,0.6681077735964209,1.4850701848976315,0,1,0.0001290870164986,3.0199392,3.3105173,0
722,GIS,0.7435218,0.02034073,43.628494,5.6884227,180.06583,-319.7689,6,624471.6607965529,0.0003147419712692,1.2590411633253098,0.6681077735964209,1.4850701848976315,0,1,0.0001290870164986,3.0199392,3.3105173,0
730,CW,0.85874116,0.021295425,42.215084,6.8796234,185.50844,-284.3566,6,624471.6607965529,0.0003147419712692,1.2590411633253098,0.6681077735964209,1.4850701848976315,0,0,0.0001290870164986,2.647391,3.3291535,0
731,GIS,0.85874116,0.021295425,42.215084,6.8796234,185.50844,-284.3566,6,624471.6607965529,0.0003147419712692,1.2590411633253098,0.6681077735964209,1.4850701848976315,0,0,0.0001290870164986,2.647391,3.3291535,0
739,CW,0.7378831,0.023107123,42.075596,5.3360496,363.92206,-284.9089,6,624471.6607965529,0.0003060437282547,1.2590411633253098,0.6681077735964209,1.4850701848976315,0,0,0.0001290870164986,2.893084,3.3111012,0
740,GIS,0.7378831,0.023107123,42.075596,5.3360496,363.92206,-284.9089,6,624471.6607965529,0.0003060437282547,1.2590411633253098,0.6681077735964209,1.4850701848976315,0,0,0.0001290870164986,2.893084,3.3111012,0
748,CW,0.8108094,0.021187328,41.629948,5.5376124,396.15445,-519.4652,6,624471.6607965529,0.0003147419712692,1.0361368326470255,0.6681077735964209,1.4850701848976315,0,0,0.0001290870164986,3.1537848,3.3434358,0
749,GIS,0.8108094,0.021187328,41.629948,5.5376124,396.15445,-519.4652,6,624471.6607965529,0.0003147419712692,1.0361368326470255,0.6681077735964209,1.4850701848976315,0,0,0.0001290870164986,3.1537848,3.3434358,0
757,CW,0.8270149,0.017492028,40.79351,5.148652,226.24438,-463.59967,6,624471.6607965529,0.0003147419712692,1.2590411633253098,0.7152568069286644,1.4850701848976315,0,0,0.0001290870164986,2.799054,3.345884,0
758,GIS,0.8270149,0.017492028,40.79351,5.148652,226.24438,-463.59967,6,624471.6607965529,0.0003147419712692,1.2590411633253098,0.7152568069286644,1.4850701848976315,0,0,0.0001290870164986,2.799054,3.345884,0
766,CW,0.712503,0.02450852,43.194305,6.789024,366.70135,-292.29413,6,624471.6607965529,0.0003147419712692,1.2590411633253098,0.6681077735964209,1.6149727292358875,0,0,0.0001290870164986,2.8864808,3.2810369,0
767,GIS,0.712503,0.02450852,43.194305,6.789024,366.70135,-292.29413,6,624471.6607965529,0.0003147419712692,1.2590411633253098,0.6681077735964209,1.6149727292358875,0,0,0.0001290870164986,2.8864808,3.2810369,0
775,CW,0.6828199,0.017803932,43.730762,6.311759,239.19928,-386.5093,6,624471.6607965529,0.0003147419712692,1.2590411633253098,0.6681077735964209,1.4850701848976315,0,0,0.0001290870164986,2.7220361,3.3617938,0
776,GIS,0.6828199,0.017803932,43.730762,6.311759,239.19928,-386.5093,6,624471.6607965529,0.0003147419712692,1.2590411633253098,0.6681077735964209,1.4850701848976315,0,0,0.0001290870164986,2.7220361,3.3617938,0
784,CW,0.6850528,0.018548476,41.09984,10.268041,62.19061,-176.82695,6,624471.6607965529,0.0003147419712692,1.2590411633253098,0.6681077735964209,1.4850701848976315,0,0,0.0001290870164986,2.5510404,3.281315,0
785,GIS,0.6850528,0.018548476,41.09984,10.268041,62.19061,-176.82695,6,624471.6607965529,0.0003147419712692,1.2590411633253098,0.6681077735964209,1.4850701848976315,0,0,0.0001290870164986,2.5510404,3.281315,0
793,CW,0.81844175,0.014952474,40.43975,5.440202,257.03995,-519.65985,0,401895.6848420203,0.0003570296440646,1.613023813907057,0.5469993244390935,1.2449926330707968,1,5,0.0001111307895742,1.7598931,3.3056242,0
794,GIS,0.81844175,0.014952474,40.43975,5.440202,257.03995,-519.65985,0,401895.6848420203,0.0003570296440646,1.613023813907057,0.5469993244390935,1.2449926330707968,1,5,0.0001111307895742,1.7598931,3.3056242,0
802,CW,0.8823312,0.015484727,43.33428,5.4949474,83.4547,-399.21667,0,449721.0473753512,0.0003570296440646,1.613023813907057,0.5469993244390935,1.2449926330707968,1,5,0.0001111307895742,2.3388999,3.2907772,0
803,GIS,0.8823312,0.015484727,43.33428,5.4949474,83.4547,-399.21667,0,449721.0473753512,0.0003570296440646,1.613023813907057,0.5469993244390935,1.2449926330707968,1,5,0.0001111307895742,2.3388999,3.2907772,0
811,CW,0.88417333,0.021228664,40.867382,6.1786757,314.67377,-457.19638,6,401895.6848420203,0.0003570296440646,1.613023813907057,0.5469993244390935,1.2449926330707968,1,5,0.0001111307895742,2.7802591,3.3328717,0
812,GIS,0.88417333,0.021228664,40.867382,6.1786757,314.67377,-457.19638,6,401895.6848420203,0.0003570296440646,1.613023813907057,0.5469993244390935,1.2449926330707968,1,5,0.0001111307895742,2.7802591,3.3328717,0
820,CW,0.6833375,0.025718741,42.964226,4.9846015,556.6476,-469.12924,0,401895.6848420203,0.0003570296440646,1.613023813907057,0.5469993244390935,1.2449926330707968,1,5,7.713345454540103e-05,3.417634,3.3687258,0
821,GIS,0.6833375,0.025718741,42.964226,4.9846015,556.6476,-469.12924,0,401895.6848420203,0.0003570296440646,1.613023813907057,0.5469993244390935,1.2449926330707968,1,5,7.713345454540103e-05,3.417634,3.3687258,0
829,CW,0.7770994,0.015877403,40.86448,7.076546,200.10977,-414.39902,0,401895.6848420203,0.0003570296440646,1.613023813907057,0.5469993244390935,1.2449926330707968,1,4,0.0001111307895742,2.5228915,3.2830217,0
830,GIS,0.7770994,0.015877403,40.86448,7.076546,200.10977,-414.39902,0,401895.6848420203,0.0003570296440646,1.613023813907057,0.5469993244390935,1.2449926330707968,1,4,0.0001111307895742,2.5228915,3.2830217,0
838,CW,0.64629585,0.020434283,44.49807,8.521254,341.23352,-342.0733,0,401895.6848420203,0.0003570296440646,1.613023813907057,0.5469993244390935,1.2449926330707968,1,5,0.0001111307895742,2.6180372,3.2723036,0
839,GIS,0.64629585,0.020434283,44.49807,8.521254,341.23352,-342.0733,0,401895.6848420203,0.0003570296440646,1.613023813907057,0.5469993244390935,1.2449926330707968,1,5,0.0001111307895742,2.6180372,3.2723036,0
847,CW,0.73518384,0.018026173,43.650642,6.2627845,286.84045,-419.82047,0,401895.6848420203,0.0003164707553386,1.613023813907057,0.5469993244390935,1.2449926330707968,1,5,0.0001111307895742,2.1819346,3.363209,0
848,GIS,0.73518384,0.018026173,43.650642,6.2627845,286.84045,-419.82047,0,401895.6848420203,0.0003164707553386,1.613023813907057,0.5469993244390935,1.2449926330707968,1,5,0.0001111307895742,2.1819346,3.363209,0
856,CW,0.7603822,0.014770071,42.73202,8.068886,312.08395,-398.0058,0,401895.6848420203,0.0003570296440646,1.3329730762168766,0.5469993244390935,1.2449926330707968,1,5,0.0001111307895742,2.476553,3.3107593,0
857,GIS,0.7603822,0.014770071,42.73202,8.068886,312.08395,-398.0058,0,401895.6848420203,0.0003570296440646,1.3329730762168766,0.5469993244390935,1.2449926330707968,1,5,0.0001111307895742,2.476553,3.3107593,0
865,CW,0.8255092,0.015061436,43.315594,6.8555827,217.87474,-409.02917,0,401895.6848420203,0.0003570296440646,1.613023813907057,0.5905223915819079,1.2449926330707968,1,5,0.0001111307895742,2.4980063,3.2724626,0
866,GIS,0.8255092,0.015061436,43.315594,6.8555827,217.87474,-409.02917,0,401895.6848420203,0.0003570296440646,1.613023813907057,0.5905223915819079,1.2449926330707968,1,5,0.0001111307895742,2.4980063,3.2724626,0
874,CW,0.6982356,0.016805664,44.25114,5.5594745,201.47763,-450.93912,0,401895.6848420203,0.0003570296440646,1.613023813907057,0.5469993244390935,1.2607277274131776,1,5,0.0001111307895742,2.7624881,3.277069,0
875,GIS,0.6982356,0.016805664,44.25114,5.5594745,201.47763,-450.93912,0,401895.6848420203,0.0003570296440646,1.613023813907057,0.5469993244390935,1.2607277274131776,1,5,0.0001111307895742,2.7624881,3.277069,0
883,CW,0.7340772,0.01451078,44.05433,5.457308,138.1315,-585.8142,0,401895.6848420203,0.0003570296440646,1.613023813907057,0.5469993244390935,1.2449926330707968,1,5,0.0001111307895742,2.4972146,3.3793828,0
884,GIS,0.7340772,0.01451078,44.05433,5.457308,138.1315,-585.8142,0,401895.6848420203,0.0003570296440646,1.613023813907057,0.5469993244390935,1.2449926330707968,1,5,0.0001111307895742,2.4972146,3.3793828,0
892,CW,0.86092937,0.01777252,43.73242,8.407348,154.92828,-405.71558,6,401895.6848420203,0.0003164707553386,1.3329730762168766,0.5905223915819079,1.2607277274131776,1,4,7.713345454540103e-05,3.1626866,3.3443098,0
893,GIS,0.86092937,0.01777252,43.73242,8.407348,154.92828,-405.71558,6,401895.6848420203,0.0003164707553386,1.3329730762168766,0.5905223915819079,1.2607277274131776,1,4,7.713345454540103e-05,3.1626866,3.3443098,0
901,CW,0.66426116,0.020411754,44.256462,6.258546,489.69617,-476.9002,0,449721.0473753512,0.0003164707553386,1.3329730762168766,0.5905223915819079,1.2607277274131776,1,4,7.713345454540103e-05,2.8587673,3.2885237,0
902,GIS,0.66426116,0.020411754,44.256462,6.258546,489.69617,-476.9002,0,449721.0473753512,0.0003164707553386,1.3329730762168766,0.5905223915819079,1.2607277274131776,1,4,7.713345454540103e-05,2.8587673,3.2885237,0
910,CW,0.8232965,0.021699263,43.893333,9.822262,544.20135,-218.09213,6,449721.0473753512,0.0003164707553386,1.3329730762168766,0.5905223915819079,1.2607277274131776,1,4,0.0001111307895742,2.596449,3.3215718,0
911,GIS,0.8232965,0.021699263,43.893333,9.822262,544.20135,-218.09213,6,449721.0473753512,0.0003164707553386,1.3329730762168766,0.5905223915819079,1.2607277274131776,1,4,0.0001111307895742,2.596449,3.3215718,0
919,CW,0.710891,0.018986298,41.757175,4.9756923,208.73286,-444.79202,6,449721.0473753512,0.0003164707553386,1.3329730762168766,0.5905223915819079,1.2607277274131776,1,5,7.713345454540103e-05,3.1509786,3.2866912,0
920,GIS,0.710891,0.018986298,41.757175,4.9756923,208.73286,-444.79202,6,449721.0473753512,0.0003164707553386,1.3329730762168766,0.5905223915819079,1.2607277274131776,1,5,7.713345454540103e-05,3.1509786,3.2866912,0
928,CW,0.5924007,0.016797429,44.69108,8.335615,263.46494,-416.93964,6,449721.0473753512,0.0003164707553386,1.3329730762168766,0.5905223915819079,1.2607277274131776,1,4,7.713345454540103e-05,2.5095866,3.2448266,0
929,GIS,0.5924007,0.016797429,44.69108,8.335615,263.46494,-416.93964,6,449721.0473753512,0.0003164707553386,1.3329730762168766,0.5905223915819079,1.2607277274131776,1,4,7.713345454540103e-05,2.5095866,3.2448266,0
937,CW,0.71401215,0.024041755,44.277542,7.343842,556.2601,-348.43915,6,449721.0473753512,0.0003570296440646,1.3329730762168766,0.5905223915819079,1.2607277274131776,1,4,7.713345454540103e-05,2.759944,3.2898939,0
938,GIS,0.71401215,0.024041755,44.277542,7.343842,556.2601,-348.43915,6,449721.0473753512,0.0003570296440646,1.3329730762168766,0.5905223915819079,1.2607277274131776,1,4,7.713345454540103e-05,2.759944,3.2898939,0
946,CW,0.6534731,0.016626341,42.79712,11.800001,185.81615,-333.52682,6,449721.0473753512,0.0003164707553386,1.613023813907057,0.5905223915819079,1.2607277274131776,1,4,7.713345454540103e-05,2.631321,3.3054297,0
947,GIS,0.6534731,0.016626341,42.79712,11.800001,185.81615,-333.52682,6,449721.0473753512,0.0003164707553386,1.613023813907057,0.5905223915819079,1.2607277274131776,1,4,7.713345454540103e-05,2.631321,3.3054297,0
955,CW,0.6788574,0.018713051,42.102818,6.3627653,141.4179,-322.1884,6,449721.0473753512,0.0003164707553386,1.3329730762168766,0.5469993244390935,1.2607277274131776,1,4,7.713345454540103e-05,2.53929,3.2587068,0
956,GIS,0.6788574,0.018713051,42.102818,6.3627653,141.4179,-322.1884,6,449721.0473753512,0.0003164707553386,1.3329730762168766,0.5469993244390935,1.2607277274131776,1,4,7.713345454540103e-05,2.53929,3.2587068,0
964,CW,0.7028262,0.025715014,43.178253,9.864181,363.17856,-177.96109,6,449721.0473753512,0.0003164707553386,1.3329730762168766,0.5905223915819079,1.2449926330707968,1,4,7.713345454540103e-05,3.099004,3.3357859,0
965,GIS,0.7028262,0.025715014,43.178253,9.864181,363.17856,-177.96109,6,449721.0473753512,0.0003164707553386,1.3329730762168766,0.5905223915819079,1.2449926330707968,1,4,7.713345454540103e-05,3.099004,3.3357859,0
973,CW,0.6400893,0.01901413,41.48846,7.1730404,294.9714,-470.5143,6,449721.0473753512,0.0003164707553386,1.3329730762168766,0.5905223915819079,1.2607277274131776,1,4,7.713345454540103e-05,2.5210989,3.3226695,0
974,GIS,0.6400893,0.01901413,41.48846,7.1730404,294.9714,-470.5143,6,449721.0473753512,0.0003164707553386,1.3329730762168766,0.5905223915819079,1.2607277274131776,1,4,7.713345454540103e-05,2.5210989,3.3226695,0
982,CW,0.7804937,0.02068944,43.694546,5.20043,363.5096,-397.47168,6,449721.0473753512,0.0003164707553386,1.3329730762168766,0.5905223915819079,1.2607277274131776,1,4,7.713345454540103e-05,2.6841373,3.27952,0
983,GIS,0.7804937,0.02068944,43.694546,5.20043,363.5096,-397.47168,6,449721.0473753512,0.0003164707553386,1.3329730762168766,0.5905223915819079,1.2607277274131776,1,4,7.713345454540103e-05,2.6841373,3.27952,0
991,CW,0.6780328,0.017589783,44.52052,9.092865,425.36133,-368.32037,2,643377.1096169949,0.0002900691005587,1.0902207960374652,0.8124196554999799,1.500662255845964,0,3,0.0001494571745395,2.7860832,3.320444,2
992,GIS,0.6780328,0.017589783,44.52052,9.092865,425.36133,-368.32037,2,643377.1096169949,0.0002900691005587,1.0902207960374652,0.8124196554999799,1.500662255845964,0,3,0.0001494571745395,2.7860832,3.320444,2
1000,CW,0.8236571,0.021842344,40.30663,7.115759,400.1193,-403.96902,2,608948.4306052327,0.0002900691005587,1.0902207960374652,0.8124196554999799,1.500662255845964,0,3,0.0001494571745395,2.7509134,3.2561424,2
1001,GIS,0.8236571,0.021842344,40.30663,7.115759,400.1193,-403.96902,2,608948.4306052327,0.0002900691005587,1.0902207960374652,0.8124196554999799,1.500662255845964,0,3,0.0001494571745395,2.7509134,3.2561424,2
1009,CW,0.79834247,0.021340027,41.385666,9.30599,197.55412,-229.21495,2,643377.1096169949,0.0002900691005587,1.0902207960374652,0.8124196554999799,1.500662255845964,0,3,0.0001494571745395,3.17626,3.3265178,2
1010,GIS,0.79834247,0.021340027,41.385666,9.30599,197.55412,-229.21495,2,643377.1096169949,0.0002900691005587,1.0902207960374652,0.8124196554999799,1.500662255845964,0,3,0.0001494571745395,3.17626,3.3265178,2
1018,CW,0.6630032,0.018209068,41.830235,7.651289,222.2042,-367.37735,2,643377.1096169949,0.0002900691005587,1.0902207960374652,0.8124196554999799,1.500662255845964,0,3,0.0001212869212031,2.7085614,3.295705,2
1019,GIS,0.6630032,0.018209068,41.830235,7.651289,222.2042,-367.37735,2,643377.1096169949,0.0002900691005587,1.0902207960374652,0.8124196554999799,1.500662255845964,0,3,0.0001212869212031,2.7085614,3.295705,2
1027,CW,0.7770307,0.021244362,42.321007,5.3059454,225.07396,-332.63028,2,643377.1096169949,0.0002900691005587,1.0902207960374652,0.8124196554999799,1.500662255845964,0,6,0.0001494571745395,2.7370527,3.2806146,2
1028,GIS,0.7770307,0.021244362,42.321007,5.3059454,225.07396,-332.63028,2,643377.1096169949,0.0002900691005587,1.0902207960374652,0.8124196554999799,1.500662255845964,0,6,0.0001494571745395,2.7370527,3.2806146,2
1036,CW,0.87981623,0.017887639,40.932632,6.934733,64.72394,-408.78534,2,643377.1096169949,0.0002900691005587,1.0902207960374652,0.8124196554999799,1.500662255845964,0,3,0.0001494571745395,3.2917826,3.388531,2
1037,GIS,0.87981623,0.017887639,40.932632,6.934733,64.72394,-408.78534,2,643377.1096169949,0.0002900691005587,1.0902207960374652,0.8124196554999799,1.500662255845964,0,3,0.0001494571745395,3.2917826,3.388531,2
1045,CW,0.7460041,0.02016166,41.438866,6.066203,175.22699,-374.43494,2,643377.1096169949,0.0002462061953544,1.0902207960374652,0.8124196554999799,1.500662255845964,0,3,0.0001494571745395,2.4809346,3.3309314,2
1046,GIS,0.7460041,0.02016166,41.438866,6.066203,175.22699,-374.43494,2,643377.1096169949,0.0002462061953544,1.0902207960374652,0.8124196554999799,1.500662255845964,0,3,0.0001494571745395,2.4809346,3.3309314,2
1054,CW,0.61578345,0.014768672,42.694942,7.5583644,220.1922,-388.27353,2,643377.1096169949,0.0002900691005587,1.3642323330044746,0.8124196554999799,1.500662255845964,0,3,0.0001494571745395,2.1533103,3.2741566,2
1055,GIS,0.61578345,0.014768672,42.694942,7.5583644,220.1922,-388.27353,2,643377.1096169949,0.0002900691005587,1.3642323330044746,0.8124196554999799,1.500662255845964,0,3,0.0001494571745395,2.1533103,3.2741566,2
1063,CW,0.5997534,0.01566997,43.83223,9.507411,238.22328,-440.9541,2,643377.1096169949,0.0002900691005587,1.0902207960374652,0.3714940529782325,1.500662255845964,0,3,0.0001494571745395,2.2833707,3.3219912,2
1064,GIS,0.5997534,0.01566997,43.83223,9.507411,238.22328,-440.9541,2,643377.1096169949,0.0002900691005587,1.0902207960374652,0.3714940529782325,1.500662255845964,0,3,0.0001494571745395,2.2833707,3.3219912,2
1072,CW,0.62932366,0.018212283,41.97751,6.646955,333.04007,-468.6903,2,643377.1096169949,0.0002900691005587,1.0902207960374652,0.8124196554999799,1.566284354776144,0,3,0.0001494571745395,2.297408,3.2826874,2
1073,GIS,0.62932366,0.018212283,41.97751,6.646955,333.04007,-468.6903,2,643377.1096169949,0.0002900691005587,1.0902207960374652,0.8124196554999799,1.566284354776144,0,3,0.0001494571745395,2.297408,3.2826874,2
1081,CW,0.7452758,0.017963775,44.7931,6.677633,284.3885,-413.6201,2,643377.1096169949,0.0002900691005587,1.0902207960374652,0.8124196554999799,1.500662255845964,0,3,0.0001494571745395,2.7233949,3.307434,2
1082,GIS,0.7452758,0.017963775,44.7931,6.677633,284.3885,-413.6201,2,643377.1096169949,0.0002900691005587,1.0902207960374652,0.8124196554999799,1.500662255845964,0,3,0.0001494571745395,2.7233949,3.307434,2
1090,CW,0.75629884,0.01945171,40.716232,5.6828604,260.191,-352.96622,2,643377.1096169949,0.0002462061953544,1.3642323330044746,0.3714940529782325,1.566284354776144,0,6,0.0001212869212031,2.2593696,3.3001547,2
1091,GIS,0.75629884,0.01945171,40.716232,5.6828604,260.191,-352.96622,2,643377.1096169949,0.0002462061953544,1.3642323330044746,0.3714940529782325,1.566284354776144,0,6,0.0001212869212031,2.2593696,3.3001547,2
1099,CW,0.77093726,0.021772362,42.759525,7.0448728,249.16537,-323.89655,2,608948.4306052327,0.0002462061953544,1.3642323330044746,0.3714940529782325,1.566284354776144,0,6,0.0001212869212031,2.7752633,3.3279727,2
1100,GIS,0.77093726,0.021772362,42.759525,7.0448728,249.16537,-323.89655,2,608948.4306052327,0.0002462061953544,1.3642323330044746,0.3714940529782325,1.566284354776144,0,6,0.0001212869212031,2.7752633,3.3279727,2
1108,CW,0.539088,0.019174065,41.975296,5.911827,199.57141,-532.3627,2,608948.4306052327,0.0002462061953544,1.3642323330044746,0.3714940529782325,1.566284354776144,0,6,0.0001494571745395,2.593692,3.3089128,2
1109,GIS,0.539088,0.019174065,41.975296,5.911827,199.57141,-532.3627,2,608948.4306052327,0.0002462061953544,1.3642323330044746,0.3714940529782325,1.566284354776144,0,6,0.0001494571745395,2.593692,3.3089128,2
1117,CW,0.6222386,0.01692347,44.69535,5.881397,270.0367,-428.17053,2,608948.4306052327,0.0002462061953544,1.3642323330044746,0.3714940529782325,1.566284354776144,0,3,0.0001212869212031,2.234057,3.2734103,2
1118,GIS,0.6222386,0.01692347,44.69535,5.881397,270.0367,-428.17053,2,608948.4306052327,0.0002462061953544,1.3642323330044746,0.3714940529782325,1.566284354776144,0,3,0.0001212869212031,2.234057,3.2734103,2
1126,CW,0.7334877,0.016521389,41.000324,7.091053,327.67654,-435.99063,2,608948.4306052327,0.0002462061953544,1.3642323330044746,0.3714940529782325,1.566284354776144,0,6,0.0001212869212031,2.1295187,3.2964745,2
1127,GIS,0.7334877,0.016521389,41.000324,7.091053,327.67654,-435.99063,2,608948.4306052327,0.0002462061953544,1.3642323330044746,0.3714940529782325,1.566284354776144,0,6,0.0001212869212031,2.1295187,3.2964745,2
1135,CW,0.681615,0.02161852,42.033424,6.3976903,242.83391,-355.58444,2,608948.4306052327,0.0002900691005587,1.3642323330044746,0.3714940529782325,1.566284354776144,0,6,0.0001212869212031,3.1910162,3.2798035,2
1136,GIS,0.681615,0.02161852,42.033424,6.3976903,242.83391,-355.58444,2,608948.4306052327,0.0002900691005587,1.3642323330044746,0.3714940529782325,1.566284354776144,0,6,0.0001212869212031,3.1910162,3.2798035,2
1144,CW,0.8355537,0.0142882755,42.12938,7.02165,85.79302,-285.16617,2,608948.4306052327,0.0002462061953544,1.0902207960374652,0.3714940529782325,1.566284354776144,0,6,0.0001212869212031,2.6989434,3.2795928,2
1145,GIS,0.8355537,0.0142882755,42.12938,7.02165,85.79302,-285.16617,2,608948.4306052327,0.0002462061953544,1.0902207960374652,0.3714940529782325,1.566284354776144,0,6,0.0001212869212031,2.6989434,3.2795928,2
1153,CW,0.8437441,0.023401588,40.850647,6.007526,425.1077,-261.6453,2,608948.4306052327,0.0002462061953544,1.3642323330044746,0.8124196554999799,1.566284354776144,0,6,0.0001212869212031,2.186709,3.3475168,2
1154,GIS,0.8437441,0.023401588,40.850647,6.007526,425.1077,-261.6453,2,608948.4306052327,0.0002462061953544,1.3642323330044746,0.8124196554999799,1.566284354776144,0,6,0.0001212869212031,2.186709,3.3475168,2
1162,CW,0.6928033,0.018289797,44.194214,7.6702323,549.39636,-520.7676,2,608948.4306052327,0.0002462061953544,1.3642323330044746,0.3714940529782325,1.500662255845964,0,6,0.0001212869212031,2.5018094,3.2922974,2
1163,GIS,0.6928033,0.018289797,44.194214,7.6702323,549.39636,-520.7676,2,608948.4306052327,0.0002462061953544,1.3642323330044746,0.3714940529782325,1.500662255845964,0,6,0.0001212869212031,2.5018094,3.2922974,2
1171,CW,0.74948907,0.016445791,42.968193,5.6770554,237.07207,-402.47903,2,608948.4306052327,0.0002462061953544,1.3642323330044746,0.3714940529782325,1.566284354776144,0,6,0.0001212869212031,2.450532,3.2769408,2
1172,GIS,0.74948907,0.016445791,42.968193,5.6770554,237.07207,-402.47903,2,608948.4306052327,0.0002462061953544,1.3642323330044746,0.3714940529782325,1.566284354776144,0,6,0.0001212869212031,2.450532,3.2769408,2
1180,CW,0.72904027,0.02458737,43.471375,6.7910137,396.40494,-262.7194,2,608948.4306052327,0.0002462061953544,1.3642323330044746,0.3714940529782325,1.566284354776144,0,6,0.0001212869212031,3.0509024,3.3133974,2
1181,GIS,0.72904027,0.02458737,43.471375,6.7910137,396.40494,-262.7194,2,608948.4306052327,0.0002462061953544,1.3642323330044746,0.3714940529782325,1.566284354776144,0,6,0.0001212869212031,3.0509024,3.3133974,2
1189,CW,0.70605564,0.01598514,44.06465,5.8651924,198.30653,-445.4546,6,502113.1915040314,0.0002630693954229,1.4358865357935429,0.6895985647570342,1.714455636590719,0,2,9.203077694401144e-05,2.9949658,3.3082075,2
1190,GIS,0.70605564,0.01598514,44.06465,5.8651924,198.30653,-445.4546,6,502113.1915040314,0.0002630693954229,1.4358865357935429,0.6895985647570342,1.714455636590719,0,2,9.203077694401144e-05,2.9949658,3.3082075,2
1198,CW,0.6270035,0.02367346,40.234104,10.795517,271.63324,-232.96985,6,558525.809366256,0.0002630693954229,1.4358865357935429,0.6895985647570342,1.714455636590719,0,2,9.203077694401144e-05,2.7050111,3.3025186,2
1199,GIS,0.6270035,0.02367346,40.234104,10.795517,271.63324,-232.96985,6,558525.809366256,0.0002630693954229,1.4358865357935429,0.6895985647570342,1.714455636590719,0,2,9.203077694401144e-05,2.7050111,3.3025186,2
1207,CW,0.5227982,0.025050558,42.505795,7.519788,124.53915,-370.63773,2,502113.1915040314,0.0002630693954229,1.4358865357935429,0.6895985647570342,1.714455636590719,0,2,9.203077694401144e-05,3.198471,3.3227584,2
1208,GIS,0.5227982,0.025050558,42.505795,7.519788,124.53915,-370.63773,2,502113.1915040314,0.0002630693954229,1.4358865357935429,0.6895985647570342,1.714455636590719,0,2,9.203077694401144e-05,3.198471,3.3227584,2
1216,CW,0.7877742,0.01756273,41.822777,5.008267,135.88809,-253.23492,6,502113.1915040314,0.0002630693954229,1.4358865357935429,0.6895985647570342,1.714455636590719,0,2,9.519537712913006e-05,2.1644566,3.2746508,2
1217,GIS,0.7877742,0.01756273,41.822777,5.008267,135.88809,-253.23492,6,502113.1915040314,0.0002630693954229,1.4358865357935429,0.6895985647570342,1.714455636590719,0,2,9.519537712913006e-05,2.1644566,3.2746508,2
1225,CW,0.81601423,0.021197043,40.331966,6.6710396,224.91954,-259.60565,6,502113.1915040314,0.0002630693954229,1.4358865357935429,0.6895985647570342,1.714455636590719,0,7,9.203077694401144e-05,2.4278643,3.3129272,2
1226,GIS,0.81601423,0.021197043,40.331966,6.6710396,224.91954,-259.60565,6,502113.1915040314,0.0002630693954229,1.4358865357935429,0.6895985647570342,1.714455636590719,0,7,9.203077694401144e-05,2.4278643,3.3129272,2
1234,CW,0.82918155,0.01994327,43.908573,6.5518074,323.18042,-351.3105,6,502113.1915040314,0.0002630693954229,1.4358865357935429,0.6895985647570342,1.714455636590719,0,2,9.203077694401144e-05,2.8800027,3.2971997,1
1235,GIS,0.82918155,0.01994327,43.908573,6.5518074,323.18042,-351.3105,6,502113.1915040314,0.0002630693954229,1.4358865357935429,0.6895985647570342,1.714455636590719,0,2,9.203077694401144e-05,2.8800027,3.2971997,1
1243,CW,0.5561628,0.017877402,44.189236,8.064252,209.97893,-462.34625,6,502113.1915040314,0.0003368631019815,1.4358865357935429,0.6895985647570342,1.714455636590719,0,2,9.203077694401144e-05,3.0206769,3.313049,2
1244,GIS,0.5561628,0.017877402,44.189236,8.064252,209.97893,-462.34625,6,502113.1915040314,0.0003368631019815,1.4358865357935429,0.6895985647570342,1.714455636590719,0,2,9.203077694401144e-05,3.0206769,3.313049,2
1252,CW,0.61646396,0.025886472,43.852936,7.210164,278.99658,-361.6282,6,502113.1915040314,0.0002630693954229,1.5471384575590492,0.6895985647570342,1.714455636590719,0,2,9.203077694401144e-05,2.9366472,3.3768356,2
1253,GIS,0.61646396,0.025886472,43.852936,7.210164,278.99658,-361.6282,6,502113.1915040314,0.0002630693954229,1.5471384575590492,0.6895985647570342,1.714455636590719,0,2,9.203077694401144e-05,2.9366472,3.3768356,2
1261,CW,0.7988762,0.018546624,43.703064,9.573598,58.59095,-242.08514,6,502113.1915040314,0.0002630693954229,1.4358865357935429,0.743418011488393,1.714455636590719,0,2,9.203077694401144e-05,2.927594,3.3416939,2
1262,GIS,0.7988762,0.018546624,43.703064,9.573598,58.59095,-242.08514,6,502113.1915040314,0.0002630693954229,1.4358865357935429,0.743418011488393,1.714455636590719,0,2,9.203077694401144e-05,2.927594,3.3416939,2
1270,CW,0.72800606,0.015991163,44.18058,8.23672,119.35322,-300.1702,6,502113.1915040314,0.0002630693954229,1.4358865357935429,0.6895985647570342,1.71842666529119,0,2,9.203077694401144e-05,2.4885726,3.3803022,2
1271,GIS,0.72800606,0.015991163,44.18058,8.23672,119.35322,-300.1702,6,502113.1915040314,0.0002630693954229,1.4358865357935429,0.6895985647570342,1.71842666529119,0,2,9.203077694401144e-05,2.4885726,3.3803022,2
1279,CW,0.7530735,0.021887774,41.019127,7.755354,335.20618,-332.3632,6,502113.1915040314,0.0002630693954229,1.4358865357935429,0.6895985647570342,1.714455636590719,1,2,9.203077694401144e-05,2.6689055,3.2638166,2
1280,GIS,0.7530735,0.021887774,41.019127,7.755354,335.20618,-332.3632,6,502113.1915040314,0.0002630693954229,1.4358865357935429,0.6895985647570342,1.714455636590719,1,2,9.203077694401144e-05,2.6689055,3.2638166,2
1288,CW,0.7160183,0.01892305,43.09775,6.0715914,301.44696,-501.89655,2,502113.1915040314,0.0003368631019815,1.5471384575590492,0.743418011488393,1.71842666529119,1,7,9.519537712913006e-05,3.0736015,3.3174202,1
1289,GIS,0.7160183,0.01892305,43.09775,6.0715914,301.44696,-501.89655,2,502113.1915040314,0.0003368631019815,1.5471384575590492,0.743418011488393,1.71842666529119,1,7,9.519537712913006e-05,3.0736015,3.3174202,1
1297,CW,0.7055501,0.018747514,40.38022,10.394781,172.11589,-264.23877,6,558525.809366256,0.0003368631019815,1.5471384575590492,0.743418011488393,1.71842666529119,1,7,9.519537712913006e-05,2.8074605,3.2775803,1
1298,GIS,0.7055501,0.018747514,40.38022,10.394781,172.11589,-264.23877,6,558525.809366256,0.0003368631019815,1.5471384575590492,0.743418011488393,1.71842666529119,1,7,9.519537712913006e-05,2.8074605,3.2775803,1
1306,CW,0.71969265,0.023340356,44.032543,7.4002237,141.48433,-368.1682,2,558525.809366256,0.0003368631019815,1.5471384575590492,0.743418011488393,1.71842666529119,1,7,9.203077694401144e-05,3.3605876,3.3860765,1
1307,GIS,0.71969265,0.023340356,44.032543,7.4002237,141.48433,-368.1682,2,558525.809366256,0.0003368631019815,1.5471384575590492,0.743418011488393,1.71842666529119,1,7,9.203077694401144e-05,3.3605876,3.3860765,1
1315,CW,0.7843308,0.017850764,40.487003,10.220584,294.5215,-341.76697,2,558525.809366256,0.0003368631019815,1.5471384575590492,0.743418011488393,1.71842666529119,1,2,9.519537712913006e-05,2.726511,3.331381,1
1316,GIS,0.7843308,0.017850764,40.487003,10.220584,294.5215,-341.76697,2,558525.809366256,0.0003368631019815,1.5471384575590492,0.743418011488393,1.71842666529119,1,2,9.519537712913006e-05,2.726511,3.331381,1
1324,CW,0.60405564,0.020226916,40.762245,8.919124,410.02313,-396.21927,2,558525.809366256,0.0003368631019815,1.5471384575590492,0.743418011488393,1.71842666529119,1,7,9.519537712913006e-05,2.387177,3.279348,2
1325,GIS,0.60405564,0.020226916,40.762245,8.919124,410.02313,-396.21927,2,558525.809366256,0.0003368631019815,1.5471384575590492,0.743418011488393,1.71842666529119,1,7,9.519537712913006e-05,2.387177,3.279348,2
1333,CW,0.5642475,0.017512899,43.982727,8.390864,161.8786,-432.21423,2,558525.809366256,0.0002630693954229,1.5471384575590492,0.743418011488393,1.71842666529119,1,7,9.519537712913006e-05,2.5332625,3.2858984,1
1334,GIS,0.5642475,0.017512899,43.982727,8.390864,161.8786,-432.21423,2,558525.809366256,0.0002630693954229,1.5471384575590492,0.743418011488393,1.71842666529119,1,7,9.519537712913006e-05,2.5332625,3.2858984,1
1342,CW,0.8604488,0.020782147,41.924023,5.25487,319.95645,-457.9765,2,558525.809366256,0.0003368631019815,1.4358865357935429,0.743418011488393,1.71842666529119,1,7,9.519537712913006e-05,2.6092036,3.3051455,1
1343,GIS,0.8604488,0.020782147,41.924023,5.25487,319.95645,-457.9765,2,558525.809366256,0.0003368631019815,1.4358865357935429,0.743418011488393,1.71842666529119,1,7,9.519537712913006e-05,2.6092036,3.3051455,1
1351,CW,0.7552337,0.013341115,43.624397,6.9114327,278.09705,-658.0963,2,558525.809366256,0.0003368631019815,1.5471384575590492,0.6895985647570342,1.71842666529119,1,7,9.519537712913006e-05,2.394855,3.3477223,1
1352,GIS,0.7552337,0.013341115,43.624397,6.9114327,278.09705,-658.0963,2,558525.809366256,0.0003368631019815,1.5471384575590492,0.6895985647570342,1.71842666529119,1,7,9.519537712913006e-05,2.394855,3.3477223,1
1360,CW,0.7785187,0.020315243,44.642242,9.162141,294.6928,-278.8302,2,558525.809366256,0.0003368631019815,1.5471384575590492,0.743418011488393,1.714455636590719,1,7,9.519537712913006e-05,2.7829287,3.3019152,1
1361,GIS,0.7785187,0.020315243,44.642242,9.162141,294.6928,-278.8302,2,558525.809366256,0.0003368631019815,1.5471384575590492,0.743418011488393,1.714455636590719,1,7,9.519537712913006e-05,2.7829287,3.3019152,1
1369,CW,0.7045923,0.018769028,44.064594,10.429694,252.70375,-302.82993,2,558525.809366256,0.0003368631019815,1.5471384575590492,0.743418011488393,1.71842666529119,0,7,9.519537712913006e-05,2.6478977,3.3131504,1
1370,GIS,0.7045923,0.018769028,44.064594,10.429694,252.70375,-302.82993,2,558525.809366256,0.0003368631019815,1.5471384575590492,0.743418011488393,1.71842666529119,0,7,9.519537712913006e-05,2.6478977,3.3131504,1
1378,CW,0.80515885,0.017628154,42.31562,6.641595,119.51798,-369.8756,2,558525.809366256,0.0003368631019815,1.5471384575590492,0.743418011488393,1.71842666529119,1,7,9.519537712913006e-05,2.0311806,3.3049102,1
1379,GIS,0.80515885,0.017628154,42.31562,6.641595,119.51798,-369.8756,2,558525.809366256,0.0003368631019815,1.5471384575590492,0.743418011488393,1.71842666529119,1,7,9.519537712913006e-05,2.0311806,3.3049102,1
1387,CW,0.7758514,0.01774119,42.054295,5.3009706,216.70773,-435.0498,5,452961.8870466948,0.0003160828025266,1.2615521129220724,0.3883775531779975,1.2947246429510415,1,7,0.0001310571871697,2.0573776,3.3011596,1
1388,GIS,0.7758514,0.01774119,42.054295,5.3009706,216.70773,-435.0498,5,452961.8870466948,0.0003160828025266,1.2615521129220724,0.3883775531779975,1.2947246429510415,1,7,0.0001310571871697,2.0573776,3.3011596,1
1396,CW,0.7205758,0.018220074,41.810177,6.485615,208.35913,-430.9111,5,415704.688988626,0.0003160828025266,1.2615521129220724,0.3883775531779975,1.2947246429510415,1,7,0.0001310571871697,2.1123803,3.2708611,1
1397,GIS,0.7205758,0.018220074,41.810177,6.485615,208.35913,-430.9111,5,415704.688988626,0.0003160828025266,1.2615521129220724,0.3883775531779975,1.2947246429510415,1,7,0.0001310571871697,2.1123803,3.2708611,1
1405,CW,0.8231329,0.018068934,43.94593,7.2368436,272.482,-350.4362,4,452961.8870466948,0.0003160828025266,1.2615521129220724,0.3883775531779975,1.2947246429510415,1,7,0.0001310571871697,2.7345212,3.312798,1
1406,GIS,0.8231329,0.018068934,43.94593,7.2368436,272.482,-350.4362,4,452961.8870466948,0.0003160828025266,1.2615521129220724,0.3883775531779975,1.2947246429510415,1,7,0.0001310571871697,2.7345212,3.312798,1
1414,CW,0.6670836,0.01734578,42.152267,5.8891244,270.163,-445.26575,5,452961.8870466948,0.0003160828025266,1.2615521129220724,0.3883775531779975,1.2947246429510415,1,7,0.0001401407799683,2.3018525,3.277652,1
1415,GIS,0.6670836,0.01734578,42.152267,5.8891244,270.163,-445.26575,5,452961.8870466948,0.0003160828025266,1.2615521129220724,0.3883775531779975,1.2947246429510415,1,7,0.0001401407799683,2.3018525,3.277652,1
1423,CW,0.8028162,0.022140943,43.655148,7.268352,482.0856,-430.3389,5,452961.8870466948,0.0003160828025266,1.2615521129220724,0.3883775531779975,1.2947246429510415,1,8,0.0001310571871697,2.7182004,3.3397954,1
1424,GIS,0.8028162,0.022140943,43.655148,7.268352,482.0856,-430.3389,5,452961.8870466948,0.0003160828025266,1.2615521129220724,0.3883775531779975,1.2947246429510415,1,8,0.0001310571871697,2.7182004,3.3397954,1
1432,CW,0.8498671,0.021262214,44.279224,6.1210833,227.30293,-333.62582,5,452961.8870466948,0.0003160828025266,1.2615521129220724,0.3883775531779975,1.2947246429510415,1,7,0.0001310571871697,2.8465207,3.305173,0
1433,GIS,0.8498671,0.021262214,44.279224,6.1210833,227.30293,-333.62582,5,452961.8870466948,0.0003160828025266,1.2615521129220724,0.3883775531779975,1.2947246429510415,1,7,0.0001310571871697,2.8465207,3.305173,0
1441,CW,0.8069964,0.016120316,44.45314,8.8329525,342.77155,-406.51578,5,452961.8870466948,0.0002853414395079,1.2615521129220724,0.3883775531779975,1.2947246429510415,1,7,0.0001310571871697,2.348985,3.3055425,1
1442,GIS,0.8069964,0.016120316,44.45314,8.8329525,342.77155,-406.51578,5,452961.8870466948,0.0002853414395079,1.2615521129220724,0.3883775531779975,1.2947246429510415,1,7,0.0001310571871697,2.348985,3.3055425,1
1450,CW,0.6187709,0.016957007,43.611767,7.1700134,391.51303,-468.82404,5,452961.8870466948,0.0003160828025266,1.1446784876286984,0.3883775531779975,1.2947246429510415,1,7,0.0001310571871697,2.3808594,3.264533,1
1451,GIS,0.6187709,0.016957007,43.611767,7.1700134,391.51303,-468.82404,5,452961.8870466948,0.0003160828025266,1.1446784876286984,0.3883775531779975,1.2947246429510415,1,7,0.0001310571871697,2.3808594,3.264533,1
1459,CW,0.8349378,0.016009053,42.30918,5.8193054,279.6405,-477.71982,5,452961.8870466948,0.0003160828025266,1.2615521129220724,0.5236681657377631,1.2947246429510415,1,7,0.0001310571871697,2.4696376,3.3576152,1
1460,GIS,0.8349378,0.016009053,42.30918,5.8193054,279.6405,-477.71982,5,452961.8870466948,0.0003160828025266,1.2615521129220724,0.5236681657377631,1.2947246429510415,1,7,0.0001310571871697,2.4696376,3.3576152,1
1468,CW,0.8349526,0.016950577,40.351364,8.098763,139.80225,-176.8557,5,452961.8870466948,0.0003160828025266,1.2615521129220724,0.3883775531779975,1.412870090082288,1,7,0.0001310571871697,2.3105807,3.2375321,1
1469,GIS,0.8349526,0.016950577,40.351364,8.098763,139.80225,-176.8557,5,452961.8870466948,0.0003160828025266,1.2615521129220724,0.3883775531779975,1.412870090082288,1,7,0.0001310571871697,2.3105807,3.2375321,1
1477,CW,0.7737341,0.014235233,43.82016,6.3332167,252.85706,-494.79062,5,452961.8870466948,0.0003160828025266,1.2615521129220724,0.3883775531779975,1.2947246429510415,0,7,0.0001310571871697,2.5294642,3.336411,1
1478,GIS,0.7737341,0.014235233,43.82016,6.3332167,252.85706,-494.79062,5,452961.8870466948,0.0003160828025266,1.2615521129220724,0.3883775531779975,1.2947246429510415,0,7,0.0001310571871697,2.5294642,3.336411,1
1486,CW,0.8093969,0.02116856,41.37233,6.5066714,306.37225,-253.57965,4,452961.8870466948,0.0002853414395079,1.1446784876286984,0.5236681657377631,1.412870090082288,0,8,0.0001401407799683,2.2216754,3.2669065,0
1487,GIS,0.8093969,0.02116856,41.37233,6.5066714,306.37225,-253.57965,4,452961.8870466948,0.0002853414395079,1.1446784876286984,0.5236681657377631,1.412870090082288,0,8,0.0001401407799683,2.2216754,3.2669065,0
1495,CW,0.8585158,0.020087315,43.173615,8.340609,182.89772,-302.30276,5,415704.688988626,0.0002853414395079,1.1446784876286984,0.5236681657377631,1.412870090082288,0,8,0.0001401407799683,2.6552632,3.3209987,0
1496,GIS,0.8585158,0.020087315,43.173615,8.340609,182.89772,-302.30276,5,415704.688988626,0.0002853414395079,1.1446784876286984,0.5236681657377631,1.412870090082288,0,8,0.0001401407799683,2.6552632,3.3209987,0
1504,CW,0.53330314,0.021558074,42.237118,9.584669,511.51013,-508.52518,4,415704.688988626,0.0002853414395079,1.1446784876286984,0.5236681657377631,1.412870090082288,0,8,0.0001310571871697,2.0943825,3.3194618,0
1505,GIS,0.53330314,0.021558074,42.237118,9.584669,511.51013,-508.52518,4,415704.688988626,0.0002853414395079,1.1446784876286984,0.5236681657377631,1.412870090082288,0,8,0.0001310571871697,2.0943825,3.3194618,0
1513,CW,0.7890728,0.017466454,42.32423,6.1561456,210.15198,-335.53064,4,415704.688988626,0.0002853414395079,1.1446784876286984,0.5236681657377631,1.412870090082288,0,7,0.0001401407799683,2.6887984,3.2421894,0
1514,GIS,0.7890728,0.017466454,42.32423,6.1561456,210.15198,-335.53064,4,415704.688988626,0.0002853414395079,1.1446784876286984,0.5236681657377631,1.412870090082288,0,7,0.0001401407799683,2.6887984,3.2421894,0
1522,CW,0.82322687,0.014412588,44.365723,5.9234743,288.82733,-362.729,4,415704.688988626,0.0002853414395079,1.1446784876286984,0.5236681657377631,1.412870090082288,0,8,0.0001401407799683,2.2522066,3.2446954,1
1523,GIS,0.82322687,0.014412588,44.365723,5.9234743,288.82733,-362.729,4,415704.688988626,0.0002853414395079,1.1446784876286984,0.5236681657377631,1.412870090082288,0,8,0.0001401407799683,2.2522066,3.2446954,1
1531,CW,0.7016637,0.019667808,40.73675,6.0374155,134.74261,-367.04526,4,415704.688988626,0.0003160828025266,1.1446784876286984,0.5236681657377631,1.412870090082288,0,8,0.0001401407799683,3.0234663,3.3589177,0
1532,GIS,0.7016637,0.019667808,40.73675,6.0374155,134.74261,-367.04526,4,415704.688988626,0.0003160828025266,1.1446784876286984,0.5236681657377631,1.412870090082288,0,8,0.0001401407799683,3.0234663,3.3589177,0
1540,CW,0.8352364,0.017394695,43.146782,7.101399,113.26452,-404.51224,4,415704.688988626,0.0002853414395079,1.2615521129220724,0.5236681657377631,1.412870090082288,0,8,0.0001401407799683,2.1812484,3.3853214,0
1541,GIS,0.8352364,0.017394695,43.146782,7.101399,113.26452,-404.51224,4,415704.688988626,0.0002853414395079,1.2615521129220724,0.5236681657377631,1.412870090082288,0,8,0.0001401407799683,2.1812484,3.3853214,0
1549,CW,0.8410817,0.014718379,44.174397,8.534227,173.58592,-355.22623,4,415704.688988626,0.0002853414395079,1.1446784876286984,0.3883775531779975,1.412870090082288,0,8,0.0001401407799683,2.6683643,3.3467145,0
1550,GIS,0.8410817,0.014718379,44.174397,8.534227,173.58592,-355.22623,4,415704.688988626,0.0002853414395079,1.1446784876286984,0.3883775531779975,1.412870090082288,0,8,0.0001401407799683,2.6683643,3.3467145,0
1558,CW,0.6796372,0.019014021,40.747707,5.2842155,308.1435,-535.94116,4,415704.688988626,0.0002853414395079,1.1446784876286984,0.5236681657377631,1.2947246429510415,0,8,0.0001401407799683,2.7737634,3.3275485,0
1559,GIS,0.6796372,0.019014021,40.747707,5.2842155,308.1435,-535.94116,4,415704.688988626,0.0002853414395079,1.1446784876286984,0.5236681657377631,1.2947246429510415,0,8,0.0001401407799683,2.7737634,3.3275485,0
1567,CW,0.77050644,0.018366205,40.38677,8.430094,197.79837,-313.95566,4,415704.688988626,0.0002853414395079,1.1446784876286984,0.5236681657377631,1.412870090082288,1,8,0.0001401407799683,2.2094452,3.2852917,0
1568,GIS,0.77050644,0.018366205,40.38677,8.430094,197.79837,-313.95566,4,415704.688988626,0.0002853414395079,1.1446784876286984,0.5236681657377631,1.412870090082288,1,8,0.0001401407799683,2.2094452,3.2852917,0
1576,CW,0.77044386,0.017258998,44.30671,6.9511957,439.00266,-566.8025,4,415704.688988626,0.0002853414395079,1.1446784876286984,0.5236681657377631,1.412870090082288,0,8,0.0001401407799683,2.240536,3.367486,0
1577,GIS,0.77044386,0.017258998,44.30671,6.9511957,439.00266,-566.8025,4,415704.688988626,0.0002853414395079,1.1446784876286984,0.5236681657377631,1.412870090082288,0,8,0.0001401407799683,2.240536,3.367486,0
1585,CW,0.74645436,0.021395838,42.9743,6.7326403,511.96774,-317.25494,4,429613.98735642433,0.0003088323156908,1.6626453106291592,0.5255619939416647,1.2015291296876969,0,4,8.702044724486768e-05,2.7647982,3.336912,2
1586,GIS,0.74645436,0.021395838,42.9743,6.7326403,511.96774,-317.25494,4,429613.98735642433,0.0003088323156908,1.6626453106291592,0.5255619939416647,1.2015291296876969,0,4,8.702044724486768e-05,2.7647982,3.336912,2
1594,CW,0.7882449,0.014156391,44.704826,11.267611,127.97239,-209.54613,4,388906.4274728298,0.0003088323156908,1.6626453106291592,0.5255619939416647,1.2015291296876969,0,4,8.702044724486768e-05,2.3081913,3.275392,2
1595,GIS,0.7882449,0.014156391,44.704826,11.267611,127.97239,-209.54613,4,388906.4274728298,0.0003088323156908,1.6626453106291592,0.5255619939416647,1.2015291296876969,0,4,8.702044724486768e-05,2.3081913,3.275392,2
1603,CW,0.75868565,0.01924755,42.18231,6.1594954,180.91539,-280.17087,0,429613.98735642433,0.0003088323156908,1.6626453106291592,0.5255619939416647,1.2015291296876969,0,4,8.702044724486768e-05,2.8618248,3.2384315,2
1604,GIS,0.75868565,0.01924755,42.18231,6.1594954,180.91539,-280.17087,0,429613.98735642433,0.0003088323156908,1.6626453106291592,0.5255619939416647,1.2015291296876969,0,4,8.702044724486768e-05,2.8618248,3.2384315,2
1612,CW,0.638275,0.015341813,44.11122,6.9777207,210.15982,-425.33508,4,429613.98735642433,0.0003088323156908,1.6626453106291592,0.5255619939416647,1.2015291296876969,0,4,0.0001131041109329,2.190778,3.2764504,2
1613,GIS,0.638275,0.015341813,44.11122,6.9777207,210.15982,-425.33508,4,429613.98735642433,0.0003088323156908,1.6626453106291592,0.5255619939416647,1.2015291296876969,0,4,0.0001131041109329,2.190778,3.2764504,2
1621,CW,0.7297672,0.01562436,43.57003,7.4685907,119.2447,-406.63367,4,429613.98735642433,0.0003088323156908,1.6626453106291592,0.5255619939416647,1.2015291296876969,0,9,8.702044724486768e-05,2.8442638,3.282932,2
1622,GIS,0.7297672,0.01562436,43.57003,7.4685907,119.2447,-406.63367,4,429613.98735642433,0.0003088323156908,1.6626453106291592,0.5255619939416647,1.2015291296876969,0,9,8.702044724486768e-05,2.8442638,3.282932,2
1630,CW,0.6646232,0.023652585,40.18399,7.47873,216.94267,-271.79813,4,429613.98735642433,0.0003088323156908,1.6626453106291592,0.5255619939416647,1.2015291296876969,0,4,8.702044724486768e-05,2.6909618,3.329262,2
1631,GIS,0.6646232,0.023652585,40.18399,7.47873,216.94267,-271.79813,4,429613.98735642433,0.0003088323156908,1.6626453106291592,0.5255619939416647,1.2015291296876969,0,4,8.702044724486768e-05,2.6909618,3.329262,2
1639,CW,0.74574214,0.017496003,42.14908,7.0341496,274.03616,-369.12585,4,429613.98735642433,0.0003265817246586,1.6626453106291592,0.5255619939416647,1.2015291296876969,0,4,8.702044724486768e-05,2.3431919,3.313923,2
1640,GIS,0.74574214,0.017496003,42.14908,7.0341496,274.03616,-369.12585,4,429613.98735642433,0.0003265817246586,1.6626453106291592,0.5255619939416647,1.2015291296876969,0,4,8.702044724486768e-05,2.3431919,3.313923,2
1648,CW,0.5319544,0.018746918,41.89964,8.527133,204.48936,-325.00867,4,429613.98735642433,0.0003088323156908,1.4972256334498524,0.5255619939416647,1.2015291296876969,0,4,8.702044724486768e-05,2.0974307,3.2628527,2
1649,GIS,0.5319544,0.018746918,41.89964,8.527133,204.48936,-325.00867,4,429613.98735642433,0.0003088323156908,1.4972256334498524,0.5255619939416647,1.2015291296876969,0,4,8.702044724486768e-05,2.0974307,3.2628527,2
1657,CW,0.7695101,0.02538499,42.501816,6.7234426,445.83777,-221.52216,4,429613.98735642433,0.0003088323156908,1.6626453106291592,0.6836121849715711,1.2015291296876969,0,4,8.702044724486768e-05,3.0604231,3.2798173,2
1658,GIS,0.7695101,0.02538499,42.501816,6.7234426,445.83777,-221.52216,4,429613.98735642433,0.0003088323156908,1.6626453106291592,0.6836121849715711,1.2015291296876969,0,4,8.702044724486768e-05,3.0604231,3.2798173,2
1666,CW,0.7242669,0.019295063,40.130913,5.7554235,172.24304,-404.43726,4,429613.98735642433,0.0003088323156908,1.6626453106291592,0.5255619939416647,1.2037494181655348,0,4,8.702044724486768e-05,2.4542365,3.3250408,2
1667,GIS,0.7242669,0.019295063,40.130913,5.7554235,172.24304,-404.43726,4,429613.98735642433,0.0003088323156908,1.6626453106291592,0.5255619939416647,1.2037494181655348,0,4,8.702044724486768e-05,2.4542365,3.3250408,2
1675,CW,0.7732454,0.025580745,40.668358,5.9436393,131.02066,-198.91823,4,429613.98735642433,0.0003088323156908,1.6626453106291592,0.5255619939416647,1.2015291296876969,1,4,8.702044724486768e-05,2.5426488,3.2995162,2
1676,GIS,0.7732454,0.025580745,40.668358,5.9436393,131.02066,-198.91823,4,429613.98735642433,0.0003088323156908,1.6626453106291592,0.5255619939416647,1.2015291296876969,1,4,8.702044724486768e-05,2.5426488,3.2995162,2
1684,CW,0.6996861,0.02417613,41.189625,7.005454,616.4512,-406.126,0,429613.98735642433,0.0003265817246586,1.4972256334498524,0.6836121849715711,1.2037494181655348,1,9,0.0001131041109329,2.728414,3.2934155,2
1685,GIS,0.6996861,0.02417613,41.189625,7.005454,616.4512,-406.126,0,429613.98735642433,0.0003265817246586,1.4972256334498524,0.6836121849715711,1.2037494181655348,1,9,0.0001131041109329,2.728414,3.2934155,2
1693,CW,0.8683602,0.017361384,43.51894,7.735431,153.70784,-211.0647,4,388906.4274728298,0.0003265817246586,1.4972256334498524,0.6836121849715711,1.2037494181655348,1,9,0.0001131041109329,2.9703836,3.2747245,2
1694,GIS,0.8683602,0.017361384,43.51894,7.735431,153.70784,-211.0647,4,388906.4274728298,0.0003265817246586,1.4972256334498524,0.6836121849715711,1.2037494181655348,1,9,0.0001131041109329,2.9703836,3.2747245,2
1702,CW,0.60649294,0.017465096,44.053997,7.0526404,171.55383,-443.2564,0,388906.4274728298,0.0003265817246586,1.4972256334498524,0.6836121849715711,1.2037494181655348,1,9,8.702044724486768e-05,2.9062495,3.2940223,2
1703,GIS,0.60649294,0.017465096,44.053997,7.0526404,171.55383,-443.2564,0,388906.4274728298,0.0003265817246586,1.4972256334498524,0.6836121849715711,1.2037494181655348,1,9,8.702044724486768e-05,2.9062495,3.2940223,2
1711,CW,0.6630328,0.01667861,42.989616,6.5756655,267.05948,-480.3333,0,388906.4274728298,0.0003265817246586,1.4972256334498524,0.6836121849715711,1.2037494181655348,1,4,0.0001131041109329,2.1341686,3.3397915,2
1712,GIS,0.6630328,0.01667861,42.989616,6.5756655,267.05948,-480.3333,0,388906.4274728298,0.0003265817246586,1.4972256334498524,0.6836121849715711,1.2037494181655348,1,4,0.0001131041109329,2.1341686,3.3397915,2
1720,CW,0.8424713,0.022129774,44.058006,11.020955,312.7198,-215.04764,0,388906.4274728298,0.0003265817246586,1.4972256334498524,0.6836121849715711,1.2037494181655348,1,9,0.0001131041109329,2.8841937,3.3273697,2
1721,GIS,0.8424713,0.022129774,44.058006,11.020955,312.7198,-215.04764,0,388906.4274728298,0.0003265817246586,1.4972256334498524,0.6836121849715711,1.2037494181655348,1,9,0.0001131041109329,2.8841937,3.3273697,2
1729,CW,0.6857766,0.021955643,40.153824,7.4794955,185.06181,-358.14114,0,388906.4274728298,0.0003088323156908,1.4972256334498524,0.6836121849715711,1.2037494181655348,1,9,0.0001131041109329,3.0859935,3.3109217,2
1730,GIS,0.6857766,0.021955643,40.153824,7.4794955,185.06181,-358.14114,0,388906.4274728298,0.0003088323156908,1.4972256334498524,0.6836121849715711,1.2037494181655348,1,9,0.0001131041109329,3.0859935,3.3109217,2
1738,CW,0.5831018,0.016046148,44.88442,6.949535,315.9807,-525.96497,0,388906.4274728298,0.0003265817246586,1.6626453106291592,0.6836121849715711,1.2037494181655348,1,9,0.0001131041109329,2.435674,3.31983,2
1739,GIS,0.5831018,0.016046148,44.88442,6.949535,315.9807,-525.96497,0,388906.4274728298,0.0003265817246586,1.6626453106291592,0.6836121849715711,1.2037494181655348,1,9,0.0001131041109329,2.435674,3.31983,2
1747,CW,0.7908707,0.019817667,40.08507,8.067649,166.84648,-392.08743,0,388906.4274728298,0.0003265817246586,1.4972256334498524,0.5255619939416647,1.2037494181655348,1,9,0.0001131041109329,2.7223368,3.350701,2
1748,GIS,0.7908707,0.019817667,40.08507,8.067649,166.84648,-392.08743,0,388906.4274728298,0.0003265817246586,1.4972256334498524,0.5255619939416647,1.2037494181655348,1,9,0.0001131041109329,2.7223368,3.350701,2
1756,CW,0.7447486,0.021377407,43.158592,10.205812,350.20816,-217.78294,0,388906.4274728298,0.0003265817246586,1.4972256334498524,0.6836121849715711,1.2015291296876969,1,9,0.0001131041109329,2.8334048,3.248112,2
1757,GIS,0.7447486,0.021377407,43.158592,10.205812,350.20816,-217.78294,0,388906.4274728298,0.0003265817246586,1.4972256334498524,0.6836121849715711,1.2015291296876969,1,9,0.0001131041109329,2.8334048,3.248112,2
1765,CW,0.71775246,0.01814182,40.74973,7.302438,544.6676,-535.75635,0,388906.4274728298,0.0003265817246586,1.4972256334498524,0.6836121849715711,1.2037494181655348,0,9,0.0001131041109329,2.3235319,3.2538865,2
1766,GIS,0.71775246,0.01814182,40.74973,7.302438,544.6676,-535.75635,0,388906.4274728298,0.0003265817246586,1.4972256334498524,0.6836121849715711,1.2037494181655348,0,9,0.0001131041109329,2.3235319,3.2538865,2
1774,CW,0.8336691,0.013697203,43.927162,7.238857,94.13447,-286.34586,0,388906.4274728298,0.0003265817246586,1.4972256334498524,0.6836121849715711,1.2037494181655348,1,9,0.0001131041109329,2.2674642,3.3468306,2
1775,GIS,0.8336691,0.013697203,43.927162,7.238857,94.13447,-286.34586,0,388906.4274728298,0.0003265817246586,1.4972256334498524,0.6836121849715711,1.2037494181655348,1,9,0.0001131041109329,2.2674642,3.3468306,2
1783,CW,0.8348308,0.01564685,43.28409,6.6001725,121.68263,-261.36755,3,525772.3235525191,0.0002407877162843,1.1383536227978766,0.8253663729876279,1.457186107710004,1,5,0.0001255206421483,2.3062785,3.2934194,1
1784,GIS,0.8348308,0.01564685,43.28409,6.6001725,121.68263,-261.36755,3,525772.3235525191,0.0002407877162843,1.1383536227978766,0.8253663729876279,1.457186107710004,1,5,0.0001255206421483,2.3062785,3.2934194,1
1792,CW,0.79798627,0.01864228,41.823555,6.038669,380.80328,-395.98068,3,547843.1313298643,0.0002407877162843,1.1383536227978766,0.8253663729876279,1.457186107710004,1,5,0.0001255206421483,2.5053914,3.2931898,1
1793,GIS,0.79798627,0.01864228,41.823555,6.038669,380.80328,-395.98068,3,547843.1313298643,0.0002407877162843,1.1383536227978766,0.8253663729876279,1.457186107710004,1,5,0.0001255206421483,2.5053914,3.2931898,1
1801,CW,0.6636139,0.01733176,43.59294,6.761843,194.09402,-413.94556,3,525772.3235525191,0.0002407877162843,1.1383536227978766,0.8253663729876279,1.457186107710004,1,5,0.0001255206421483,2.483581,3.3095121,1
1802,GIS,0.6636139,0.01733176,43.59294,6.761843,194.09402,-413.94556,3,525772.3235525191,0.0002407877162843,1.1383536227978766,0.8253663729876279,1.457186107710004,1,5,0.0001255206421483,2.483581,3.3095121,1
1810,CW,0.6647598,0.020559788,41.100037,8.814841,215.12083,-256.73328,3,525772.3235525191,0.0002407877162843,1.1383536227978766,0.8253663729876279,1.457186107710004,1,5,8.224410060793161e-05,2.4328856,3.2755163,1
1811,GIS,0.6647598,0.020559788,41.100037,8.814841,215.12083,-256.73328,3,525772.3235525191,0.0002407877162843,1.1383536227978766,0.8253663729876279,1.457186107710004,1,5,8.224410060793161e-05,2.4328856,3.2755163,1
1819,CW,0.75755906,0.022047965,41.055023,6.622649,449.26962,-322.81528,3,525772.3235525191,0.0002407877162843,1.1383536227978766,0.8253663729876279,1.457186107710004,1,2,0.0001255206421483,2.468439,3.295438,1
1820,GIS,0.75755906,0.022047965,41.055023,6.622649,449.26962,-322.81528,3,525772.3235525191,0.0002407877162843,1.1383536227978766,0.8253663729876279,1.457186107710004,1,2,0.0001255206421483,2.468439,3.295438,1
1828,CW,0.9353774,0.018821813,43.501995,6.516595,70.37142,-381.42603,3,525772.3235525191,0.0002407877162843,1.1383536227978766,0.8253663729876279,1.457186107710004,1,5,0.0001255206421483,3.094759,3.3490515,0
1829,GIS,0.9353774,0.018821813,43.501995,6.516595,70.37142,-381.42603,3,525772.3235525191,0.0002407877162843,1.1383536227978766,0.8253663729876279,1.457186107710004,1,5,0.0001255206421483,3.094759,3.3490515,0
1837,CW,0.66323215,0.018442746,42.862038,9.500675,287.92114,-558.6535,3,525772.3235525191,0.00025062648274,1.1383536227978766,0.8253663729876279,1.457186107710004,1,5,0.0001255206421483,2.9961593,3.285921,1
1838,GIS,0.66323215,0.018442746,42.862038,9.500675,287.92114,-558.6535,3,525772.3235525191,0.00025062648274,1.1383536227978766,0.8253663729876279,1.457186107710004,1,5,0.0001255206421483,2.9961593,3.285921,1
1846,CW,0.5484097,0.018363653,44.11953,7.09501,408.89304,-637.02185,3,525772.3235525191,0.0002407877162843,1.200017425790429,0.8253663729876279,1.457186107710004,1,5,0.0001255206421483,2.875483,3.2810721,1
1847,GIS,0.5484097,0.018363653,44.11953,7.09501,408.89304,-637.02185,3,525772.3235525191,0.0002407877162843,1.200017425790429,0.8253663729876279,1.457186107710004,1,5,0.0001255206421483,2.875483,3.2810721,1
1855,CW,0.78373355,0.01751598,41.905983,9.854262,165.16034,-377.06747,3,525772.3235525191,0.0002407877162843,1.1383536227978766,0.3450058108195662,1.457186107710004,1,5,0.0001255206421483,2.5316489,3.341492,1
1856,GIS,0.78373355,0.01751598,41.905983,9.854262,165.16034,-377.06747,3,525772.3235525191,0.0002407877162843,1.1383536227978766,0.3450058108195662,1.457186107710004,1,5,0.0001255206421483,2.5316489,3.341492,1
1864,CW,0.74369365,0.020728484,43.761757,6.2752004,210.09335,-352.55792,3,525772.3235525191,0.0002407877162843,1.1383536227978766,0.8253663729876279,1.5968046165071428,1,5,0.0001255206421483,2.687248,3.2053745,1
1865,GIS,0.74369365,0.020728484,43.761757,6.2752004,210.09335,-352.55792,3,525772.3235525191,0.0002407877162843,1.1383536227978766,0.8253663729876279,1.5968046165071428,1,5,0.0001255206421483,2.687248,3.2053745,1
1873,CW,0.6313889,0.016466938,44.311813,7.0299425,78.809685,-323.7457,3,525772.3235525191,0.0002407877162843,1.1383536227978766,0.8253663729876279,1.457186107710004,0,5,0.0001255206421483,2.8036745,3.2627845,1
1874,GIS,0.6313889,0.016466938,44.311813,7.0299425,78.809685,-323.7457,3,525772.3235525191,0.0002407877162843,1.1383536227978766,0.8253663729876279,1.457186107710004,0,5,0.0001255206421483,2.8036745,3.2627845,1
1882,CW,0.8867714,0.014683221,44.12059,6.841505,188.73958,-390.8916,3,525772.3235525191,0.00025062648274,1.200017425790429,0.3450058108195662,1.5968046165071428,0,2,8.224410060793161e-05,2.3689878,3.3100543,0
1883,GIS,0.8867714,0.014683221,44.12059,6.841505,188.73958,-390.8916,3,525772.3235525191,0.00025062648274,1.200017425790429,0.3450058108195662,1.5968046165071428,0,2,8.224410060793161e-05,2.3689878,3.3100543,0
1891,CW,0.8464923,0.022611925,43.38737,6.021483,459.64764,-330.74213,3,547843.1313298643,0.00025062648274,1.200017425790429,0.3450058108195662,1.5968046165071428,0,2,8.224410060793161e-05,2.8833623,3.335181,0
1892,GIS,0.8464923,0.022611925,43.38737,6.021483,459.64764,-330.74213,3,547843.1313298643,0.00025062648274,1.200017425790429,0.3450058108195662,1.5968046165071428,0,2,8.224410060793161e-05,2.8833623,3.335181,0
1900,CW,0.7328024,0.015260805,43.637745,10.475165,208.09993,-440.0977,3,547843.1313298643,0.00025062648274,1.200017425790429,0.3450058108195662,1.5968046165071428,0,2,0.0001255206421483,2.416643,3.327671,0
1901,GIS,0.7328024,0.015260805,43.637745,10.475165,208.09993,-440.0977,3,547843.1313298643,0.00025062648274,1.200017425790429,0.3450058108195662,1.5968046165071428,0,2,0.0001255206421483,2.416643,3.327671,0
1909,CW,0.5297044,0.021762695,42.891827,8.302631,234.02899,-449.69727,3,547843.1313298643,0.00025062648274,1.200017425790429,0.3450058108195662,1.5968046165071428,0,5,8.224410060793161e-05,2.9217074,3.3366647,0
1910,GIS,0.5297044,0.021762695,42.891827,8.302631,234.02899,-449.69727,3,547843.1313298643,0.00025062648274,1.200017425790429,0.3450058108195662,1.5968046165071428,0,5,8.224410060793161e-05,2.9217074,3.3366647,0
1918,CW,0.8445514,0.02671281,43.41277,6.363218,253.6387,-201.83548,3,547843.1313298643,0.00025062648274,1.200017425790429,0.3450058108195662,1.5968046165071428,0,2,8.224410060793161e-05,2.8374612,3.2830188,1
1919,GIS,0.8445514,0.02671281,43.41277,6.363218,253.6387,-201.83548,3,547843.1313298643,0.00025062648274,1.200017425790429,0.3450058108195662,1.5968046165071428,0,2,8.224410060793161e-05,2.8374612,3.2830188,1
1927,CW,0.6646432,0.020509735,44.76289,7.025142,579.6724,-613.83765,3,547843.1313298643,0.0002407877162843,1.200017425790429,0.3450058108195662,1.5968046165071428,0,2,8.224410060793161e-05,2.6306744,3.349685,0
1928,GIS,0.6646432,0.020509735,44.76289,7.025142,579.6724,-613.83765,3,547843.1313298643,0.0002407877162843,1.200017425790429,0.3450058108195662,1.5968046165071428,0,2,8.224410060793161e-05,2.6306744,3.349685,0
1936,CW,0.6109757,0.016434914,43.189526,6.8367534,240.3788,-475.8746,3,547843.1313298643,0.00025062648274,1.1383536227978766,0.3450058108195662,1.5968046165071428,0,2,8.224410060793161e-05,2.2127023,3.2728796,0
1937,GIS,0.6109757,0.016434914,43.189526,6.8367534,240.3788,-475.8746,3,547843.1313298643,0.00025062648274,1.1383536227978766,0.3450058108195662,1.5968046165071428,0,2,8.224410060793161e-05,2.2127023,3.2728796,0
1945,CW,0.6363777,0.016471466,43.720695,9.830216,281.12256,-461.59256,3,547843.1313298643,0.00025062648274,1.200017425790429,0.8253663729876279,1.5968046165071428,0,2,8.224410060793161e-05,2.4241774,3.2742438,0
1946,GIS,0.6363777,0.016471466,43.720695,9.830216,281.12256,-461.59256,3,547843.1313298643,0.00025062648274,1.200017425790429,0.8253663729876279,1.5968046165071428,0,2,8.224410060793161e-05,2.4241774,3.2742438,0
1954,CW,0.8096454,0.012262119,43.63333,7.4231005,75.25893,-430.7959,3,547843.1313298643,0.00025062648274,1.200017425790429,0.3450058108195662,1.457186107710004,0,2,8.224410060793161e-05,2.0846598,3.3448381,0
1955,GIS,0.8096454,0.012262119,43.63333,7.4231005,75.25893,-430.7959,3,547843.1313298643,0.00025062648274,1.200017425790429,0.3450058108195662,1.457186107710004,0,2,8.224410060793161e-05,2.0846598,3.3448381,0
1963,CW,0.81809723,0.01868801,44.48209,6.7751937,175.40672,-367.69202,3,547843.1313298643,0.00025062648274,1.200017425790429,0.3450058108195662,1.5968046165071428,1,2,8.224410060793161e-05,2.3183277,3.3386056,0
1964,GIS,0.81809723,0.01868801,44.48209,6.7751937,175.40672,-367.69202,3,547843.1313298643,0.00025062648274,1.200017425790429,0.3450058108195662,1.5968046165071428,1,2,8.224410060793161e-05,2.3183277,3.3386056,0
1972,CW,0.84375286,0.016884457,43.721016,6.1831307,185.72826,-459.69293,3,547843.1313298643,0.00025062648274,1.200017425790429,0.3450058108195662,1.5968046165071428,0,2,8.224410060793161e-05,2.3770335,3.3372529,0
1973,GIS,0.84375286,0.016884457,43.721016,6.1831307,185.72826,-459.69293,3,547843.1313298643,0.00025062648274,1.200017425790429,0.3450058108195662,1.5968046165071428,0,2,8.224410060793161e-05,2.3770335,3.3372529,0
1981,CW,0.75015163,0.015313789,40.771416,8.228785,195.96198,-309.29285,0,629394.2656368017,0.0002823204971104,1.3857099425047636,0.6767615981400013,1.757798525877297,1,9,0.000105603253981,2.1155646,3.3131034,0
1982,GIS,0.75015163,0.015313789,40.771416,8.228785,195.96198,-309.29285,0,629394.2656368017,0.0002823204971104,1.3857099425047636,0.6767615981400013,1.757798525877297,1,9,0.000105603253981,2.1155646,3.3131034,0
1990,CW,0.7937048,0.02250662,42.483475,5.41793,387.24435,-358.1529,0,581859.3103438616,0.0002823204971104,1.3857099425047636,0.6767615981400013,1.757798525877297,1,9,0.000105603253981,2.9049335,3.3624141,0
1991,GIS,0.7937048,0.02250662,42.483475,5.41793,387.24435,-358.1529,0,581859.3103438616,0.0002823204971104,1.3857099425047636,0.6767615981400013,1.757798525877297,1,9,0.000105603253981,2.9049335,3.3624141,0
1999,CW,0.737979,0.013647932,42.708126,9.96664,133.126,-356.00098,4,629394.2656368017,0.0002823204971104,1.3857099425047636,0.6767615981400013,1.757798525877297,1,9,0.000105603253981,2.3311288,3.3384953,0
2000,GIS,0.737979,0.013647932,42.708126,9.96664,133.126,-356.00098,4,629394.2656368017,0.0002823204971104,1.3857099425047636,0.6767615981400013,1.757798525877297,1,9,0.000105603253981,2.3311288,3.3384953,0
2008,CW,0.6520336,0.025299788,40.832794,8.825893,476.71188,-341.6498,0,629394.2656368017,0.0002823204971104,1.3857099425047636,0.6767615981400013,1.757798525877297,1,9,0.0001317365237278,2.7119958,3.3189335,0
2009,GIS,0.6520336,0.025299788,40.832794,8.825893,476.71188,-341.6498,0,629394.2656368017,0.0002823204971104,1.3857099425047636,0.6767615981400013,1.757798525877297,1,9,0.0001317365237278,2.7119958,3.3189335,0
2017,CW,0.59893435,0.022907082,43.242973,8.34062,230.75504,-313.60532,0,629394.2656368017,0.0002823204971104,1.3857099425047636,0.6767615981400013,1.757798525877297,1,4,0.000105603253981,2.9240081,3.355729,0
2018,GIS,0.59893435,0.022907082,43.242973,8.34062,230.75504,-313.60532,0,629394.2656368017,0.0002823204971104,1.3857099425047636,0.6767615981400013,1.757798525877297,1,4,0.000105603253981,2.9240081,3.355729,0
2026,CW,0.6019353,0.019328246,44.436577,6.13931,501.21478,-511.3589,0,629394.2656368017,0.0002823204971104,1.3857099425047636,0.6767615981400013,1.757798525877297,1,9,0.000105603253981,2.6592598,3.2383592,1
2027,GIS,0.6019353,0.019328246,44.436577,6.13931,501.21478,-511.3589,0,629394.2656368017,0.0002823204971104,1.3857099425047636,0.6767615981400013,1.757798525877297,1,9,0.000105603253981,2.6592598,3.2383592,1
2035,CW,0.90101767,0.015242247,43.124256,7.1120315,166.89064,-293.92642,0,629394.2656368017,0.0003399357304349,1.3857099425047636,0.6767615981400013,1.757798525877297,1,9,0.000105603253981,2.3911283,3.349832,0
2036,GIS,0.90101767,0.015242247,43.124256,7.1120315,166.89064,-293.92642,0,629394.2656368017,0.0003399357304349,1.3857099425047636,0.6767615981400013,1.757798525877297,1,9,0.000105603253981,2.3911283,3.349832,0
2044,CW,0.81073385,0.01800394,40.739685,8.468815,376.0008,-404.23898,0,629394.2656368017,0.0002823204971104,1.0110537135973572,0.6767615981400013,1.757798525877297,1,9,0.000105603253981,2.5427792,3.367094,0
2045,GIS,0.81073385,0.01800394,40.739685,8.468815,376.0008,-404.23898,0,629394.2656368017,0.0002823204971104,1.0110537135973572,0.6767615981400013,1.757798525877297,1,9,0.000105603253981,2.5427792,3.367094,0
2053,CW,0.8123853,0.01816614,42.34657,6.21645,142.62447,-419.90457,0,629394.2656368017,0.0002823204971104,1.3857099425047636,0.8410060999915003,1.757798525877297,1,9,0.000105603253981,2.6845183,3.301293,0
2054,GIS,0.8123853,0.01816614,42.34657,6.21645,142.62447,-419.90457,0,629394.2656368017,0.0002823204971104,1.3857099425047636,0.8410060999915003,1.757798525877297,1,9,0.000105603253981,2.6845183,3.301293,0
2062,CW,0.7888409,0.015760738,41.27374,8.648735,199.07903,-330.1146,0,629394.2656368017,0.0002823204971104,1.3857099425047636,0.6767615981400013,1.7920987929217518,1,9,0.000105603253981,2.2469888,3.3526988,0
2063,GIS,0.7888409,0.015760738,41.27374,8.648735,199.07903,-330.1146,0,629394.2656368017,0.0002823204971104,1.3857099425047636,0.6767615981400013,1.7920987929217518,1,9,0.000105603253981,2.2469888,3.3526988,0
2071,CW,0.8404472,0.013400295,41.774647,8.914417,277.27164,-400.94034,0,629394.2656368017,0.0002823204971104,1.3857099425047636,0.6767615981400013,1.757798525877297,1,9,0.000105603253981,2.1385875,3.317133,0
2072,GIS,0.8404472,0.013400295,41.774647,8.914417,277.27164,-400.94034,0,629394.2656368017,0.0002823204971104,1.3857099425047636,0.6767615981400013,1.757798525877297,1,9,0.000105603253981,2.1385875,3.317133,0
2080,CW,0.66702896,0.025209628,42.142944,7.1255703,727.7683,-490.36673,4,629394.2656368017,0.0003399357304349,1.0110537135973572,0.8410060999915003,1.7920987929217518,1,4,0.0001317365237278,3.058097,3.3098273,1
2081,GIS,0.66702896,0.025209628,42.142944,7.1255703,727.7683,-490.36673,4,629394.2656368017,0.0003399357304349,1.0110537135973572,0.8410060999915003,1.7920987929217518,1,4,0.0001317365237278,3.058097,3.3098273,1
2089,CW,0.746862,0.021007624,42.07785,5.6715465,269.8049,-379.10263,0,581859.3103438616,0.0003399357304349,1.0110537135973572,0.8410060999915003,1.7920987929217518,1,4,0.0001317365237278,2.5465996,3.3012614,1
2090,GIS,0.746862,0.021007624,42.07785,5.6715465,269.8049,-379.10263,0,581859.3103438616,0.0003399357304349,1.0110537135973572,0.8410060999915003,1.7920987929217518,1,4,0.0001317365237278,2.5465996,3.3012614,1
2098,CW,0.5694699,0.020479403,44.126675,10.658671,186.8491,-262.91403,4,581859.3103438616,0.0003399357304349,1.0110537135973572,0.8410060999915003,1.7920987929217518,1,4,0.000105603253981,3.1565204,3.2828937,1
2099,GIS,0.5694699,0.020479403,44.126675,10.658671,186.8491,-262.91403,4,581859.3103438616,0.0003399357304349,1.0110537135973572,0.8410060999915003,1.7920987929217518,1,4,0.000105603253981,3.1565204,3.2828937,1
2107,CW,0.8244812,0.021314215,42.25317,9.533815,204.00838,-292.37137,4,581859.3103438616,0.0003399357304349,1.0110537135973572,0.8410060999915003,1.7920987929217518,1,9,0.0001317365237278,2.8043365,3.33058,1
2108,GIS,0.8244812,0.021314215,42.25317,9.533815,204.00838,-292.37137,4,581859.3103438616,0.0003399357304349,1.0110537135973572,0.8410060999915003,1.7920987929217518,1,9,0.0001317365237278,2.8043365,3.33058,1
2116,CW,0.7235097,0.019766934,40.80513,12.357636,262.4116,-578.85156,4,581859.3103438616,0.0003399357304349,1.0110537135973572,0.8410060999915003,1.7920987929217518,1,4,0.0001317365237278,2.830681,3.369546,0
2117,GIS,0.7235097,0.019766934,40.80513,12.357636,262.4116,-578.85156,4,581859.3103438616,0.0003399357304349,1.0110537135973572,0.8410060999915003,1.7920987929217518,1,4,0.0001317365237278,2.830681,3.369546,0
2125,CW,0.72478914,0.019870467,42.087902,7.2026954,424.7704,-403.1149,4,581859.3103438616,0.0002823204971104,1.0110537135973572,0.8410060999915003,1.7920987929217518,1,4,0.0001317365237278,2.8448398,3.289567,1
2126,GIS,0.72478914,0.019870467,42.087902,7.2026954,424.7704,-403.1149,4,581859.3103438616,0.0002823204971104,1.0110537135973572,0.8410060999915003,1.7920987929217518,1,4,0.0001317365237278,2.8448398,3.289567,1
2134,CW,0.73451424,0.018758846,40.31556,8.853287,265.45197,-319.1397,4,581859.3103438616,0.0003399357304349,1.3857099425047636,0.8410060999915003,1.7920987929217518,1,4,0.0001317365237278,2.564033,3.3460648,1
2135,GIS,0.73451424,0.018758846,40.31556,8.853287,265.45197,-319.1397,4,581859.3103438616,0.0003399357304349,1.3857099425047636,0.8410060999915003,1.7920987929217518,1,4,0.0001317365237278,2.564033,3.3460648,1
2143,CW,0.73592025,0.013229154,42.525215,8.068629,153.00145,-405.2162,4,581859.3103438616,0.0003399357304349,1.0110537135973572,0.6767615981400013,1.7920987929217518,1,4,0.0001317365237278,2.298525,3.27856,1
2144,GIS,0.73592025,0.013229154,42.525215,8.068629,153.00145,-405.2162,4,581859.3103438616,0.0003399357304349,1.0110537135973572,0.6767615981400013,1.7920987929217518,1,4,0.0001317365237278,2.298525,3.27856,1
2152,CW,0.6785017,0.020245021,41.043537,5.957983,426.7272,-407.59006,4,581859.3103438616,0.0003399357304349,1.0110537135973572,0.8410060999915003,1.757798525877297,1,4,0.0001317365237278,2.400385,3.269378,1
2153,GIS,0.6785017,0.020245021,41.043537,5.957983,426.7272,-407.59006,4,581859.3103438616,0.0003399357304349,1.0110537135973572,0.8410060999915003,1.757798525877297,1,4,0.0001317365237278,2.400385,3.269378,1
2161,CW,0.78888726,0.017045522,42.30484,8.450308,165.31798,-323.93716,4,581859.3103438616,0.0003399357304349,1.0110537135973572,0.8410060999915003,1.7920987929217518,1,4,0.0001317365237278,2.4799051,3.2564108,1
2162,GIS,0.78888726,0.017045522,42.30484,8.450308,165.31798,-323.93716,4,581859.3103438616,0.0003399357304349,1.0110537135973572,0.8410060999915003,1.7920987929217518,1,4,0.0001317365237278,2.4799051,3.2564108,1
2170,CW,0.68929845,0.012912895,42.58159,7.801439,181.7261,-470.23163,4,581859.3103438616,0.0003399357304349,1.0110537135973572,0.8410060999915003,1.7920987929217518,1,4,0.0001317365237278,2.398516,3.2680032,1
2171,GIS,0.68929845,0.012912895,42.58159,7.801439,181.7261,-470.23163,4,581859.3103438616,0.0003399357304349,1.0110537135973572,0.8410060999915003,1.7920987929217518,1,4,0.0001317365237278,2.398516,3.2680032,1
2179,CW,0.7401632,0.02031813,41.809788,6.5075917,123.61457,-315.24533,5,416189.90870192647,0.0003343085851147,1.2126078628003598,0.4099065385758876,1.3380749146454036,0,6,0.000144437835412,2.6581807,3.3000245,1
2180,GIS,0.7401632,0.02031813,41.809788,6.5075917,123.61457,-315.24533,5,416189.90870192647,0.0003343085851147,1.2126078628003598,0.4099065385758876,1.3380749146454036,0,6,0.000144437835412,2.6581807,3.3000245,1
2188,CW,0.7764598,0.0139772985,42.697533,9.05927,178.92256,-386.59192,5,439328.87045666575,0.0003343085851147,1.2126078628003598,0.4099065385758876,1.3380749146454036,0,6,0.000144437835412,2.2335515,3.3018916,1
2189,GIS,0.7764598,0.0139772985,42.697533,9.05927,178.92256,-386.59192,5,439328.87045666575,0.0003343085851147,1.2126078628003598,0.4099065385758876,1.3380749146454036,0,6,0.000144437835412,2.2335515,3.3018916,1
2197,CW,0.6796463,0.017351476,42.76319,9.091365,73.843346,-209.98584,0,416189.90870192647,0.0003343085851147,1.2126078628003598,0.4099065385758876,1.3380749146454036,0,6,0.000144437835412,2.6325128,3.3121078,1
2198,GIS,0.6796463,0.017351476,42.76319,9.091365,73.843346,-209.98584,0,416189.90870192647,0.0003343085851147,1.2126078628003598,0.4099065385758876,1.3380749146454036,0,6,0.000144437835412,2.6325128,3.3121078,1
2206,CW,0.58736014,0.016006604,44.724304,9.705982,96.66728,-305.2112,5,416189.90870192647,0.0003343085851147,1.2126078628003598,0.4099065385758876,1.3380749146454036,0,6,0.000101695906464,2.49716,3.2774286,1
2207,GIS,0.58736014,0.016006604,44.724304,9.705982,96.66728,-305.2112,5,416189.90870192647,0.0003343085851147,1.2126078628003598,0.4099065385758876,1.3380749146454036,0,6,0.000101695906464,2.49716,3.2774286,1
2215,CW,0.7438052,0.018062605,41.525673,9.584268,164.06119,-395.54614,5,416189.90870192647,0.0003343085851147,1.2126078628003598,0.4099065385758876,1.3380749146454036,0,5,0.000144437835412,3.0857494,3.3565373,1
2216,GIS,0.7438052,0.018062605,41.525673,9.584268,164.06119,-395.54614,5,416189.90870192647,0.0003343085851147,1.2126078628003598,0.4099065385758876,1.3380749146454036,0,5,0.000144437835412,3.0857494,3.3565373,1
2224,CW,0.71713763,0.015103774,43.197414,6.4012556,185.82143,-438.53348,5,416189.90870192647,0.0003343085851147,1.2126078628003598,0.4099065385758876,1.3380749146454036,0,6,0.000144437835412,2.8767765,3.3204584,1
2225,GIS,0.71713763,0.015103774,43.197414,6.4012556,185.82143,-438.53348,5,416189.90870192647,0.0003343085851147,1.2126078628003598,0.4099065385758876,1.3380749146454036,0,6,0.000144437835412,2.8767765,3.3204584,1
2233,CW,0.7892509,0.019908758,42.815884,7.491244,147.44801,-308.238,5,416189.90870192647,0.0002977375623956,1.2126078628003598,0.4099065385758876,1.3380749146454036,0,6,0.000144437835412,2.990482,3.2752256,1
2234,GIS,0.7892509,0.019908758,42.815884,7.491244,147.44801,-308.238,5,416189.90870192647,0.0002977375623956,1.2126078628003598,0.4099065385758876,1.3380749146454036,0,6,0.000144437835412,2.990482,3.2752256,1
2242,CW,0.7878669,0.016100707,40.61092,7.0443892,186.44968,-410.45206,5,416189.90870192647,0.0003343085851147,1.680811208114028,0.4099065385758876,1.3380749146454036,0,6,0.000144437835412,2.7550926,3.359083,1
2243,GIS,0.7878669,0.016100707,40.61092,7.0443892,186.44968,-410.45206,5,416189.90870192647,0.0003343085851147,1.680811208114028,0.4099065385758876,1.3380749146454036,0,6,0.000144437835412,2.7550926,3.359083,1
2251,CW,0.70822173,0.021167073,40.468746,9.619675,484.09387,-490.74945,5,416189.90870192647,0.0003343085851147,1.2126078628003598,0.5012753784656525,1.3380749146454036,0,6,0.000144437835412,2.2436175,3.31091,1
2252,GIS,0.70822173,0.021167073,40.468746,9.619675,484.09387,-490.74945,5,416189.90870192647,0.0003343085851147,1.2126078628003598,0.5012753784656525,1.3380749146454036,0,6,0.000144437835412,2.2436175,3.31091,1
2260,CW,0.61342335,0.015346415,43.98999,13.324388,342.39343,-466.56317,5,416189.90870192647,0.0003343085851147,1.2126078628003598,0.4099065385758876,1.3990436258725822,0,6,0.000144437835412,2.378378,3.304965,1
2261,GIS,0.61342335,0.015346415,43.98999,13.324388,342.39343,-466.56317,5,416189.90870192647,0.0003343085851147,1.2126078628003598,0.4099065385758876,1.3990436258725822,0,6,0.000144437835412,2.378378,3.304965,1
2269,CW,0.6712783,0.016596716,40.815132,5.775499,169.88997,-415.91232,5,416189.90870192647,0.0003343085851147,1.2126078628003598,0.4099065385758876,1.3380749146454036,0,6,0.000144437835412,2.4473941,3.269227,1
2270,GIS,0.6712783,0.016596716,40.815132,5.775499,169.88997,-415.91232,5,416189.90870192647,0.0003343085851147,1.2126078628003598,0.4099065385758876,1.3380749146454036,0,6,0.000144437835412,2.4473941,3.269227,1
2278,CW,0.7416559,0.018458234,41.25499,7.245901,185.17833,-256.65808,0,416189.90870192647,0.0002977375623956,1.680811208114028,0.5012753784656525,1.3990436258725822,0,5,0.000101695906464,2.7820415,3.3335197,1
2279,GIS,0.7416559,0.018458234,41.25499,7.245901,185.17833,-256.65808,0,416189.90870192647,0.0002977375623956,1.680811208114028,0.5012753784656525,1.3990436258725822,0,5,0.000101695906464,2.7820415,3.3335197,1
2287,CW,0.7351806,0.020718466,43.72245,8.579772,408.8692,-382.8499,5,439328.87045666575,0.0002977375623956,1.680811208114028,0.5012753784656525,1.3990436258725822,0,5,0.000101695906464,2.5158627,3.2455163,1
2288,GIS,0.7351806,0.020718466,43.72245,8.579772,408.8692,-382.8499,5,439328.87045666575,0.0002977375623956,1.680811208114028,0.5012753784656525,1.3990436258725822,0,5,0.000101695906464,2.5158627,3.2455163,1
2296,CW,0.825005,0.019028174,41.94119,8.86383,217.16516,-337.99344,0,439328.87045666575,0.0002977375623956,1.680811208114028,0.5012753784656525,1.3990436258725822,0,5,0.000144437835412,2.6867843,3.3167927,1
2297,GIS,0.825005,0.019028174,41.94119,8.86383,217.16516,-337.99344,0,439328.87045666575,0.0002977375623956,1.680811208114028,0.5012753784656525,1.3990436258725822,0,5,0.000144437835412,2.6867843,3.3167927,1
2305,CW,0.84805423,0.0139581235,41.485954,6.0940537,131.45575,-489.09708,0,439328.87045666575,0.0002977375623956,1.680811208114028,0.5012753784656525,1.3990436258725822,0,6,0.000101695906464,2.3621624,3.3444822,1
2306,GIS,0.84805423,0.0139581235,41.485954,6.0940537,131.45575,-489.09708,0,439328.87045666575,0.0002977375623956,1.680811208114028,0.5012753784656525,1.3990436258725822,0,6,0.000101695906464,2.3621624,3.3444822,1
2314,CW,0.8149865,0.018135242,43.0254,6.3602777,244.36406,-348.78165,0,439328.87045666575,0.0002977375623956,1.680811208114028,0.5012753784656525,1.3990436258725822,0,5,0.000101695906464,2.6937535,3.2598348,1
2315,GIS,0.8149865,0.018135242,43.0254,6.3602777,244.36406,-348.78165,0,439328.87045666575,0.0002977375623956,1.680811208114028,0.5012753784656525,1.3990436258725822,0,5,0.000101695906464,2.6937535,3.2598348,1
2323,CW,0.84631604,0.020075416,42.35477,5.658582,448.76172,-566.46204,0,439328.87045666575,0.0003343085851147,1.680811208114028,0.5012753784656525,1.3990436258725822,0,5,0.000101695906464,2.6361852,3.3282883,1
2324,GIS,0.84631604,0.020075416,42.35477,5.658582,448.76172,-566.46204,0,439328.87045666575,0.0003343085851147,1.680811208114028,0.5012753784656525,1.3990436258725822,0,5,0.000101695906464,2.6361852,3.3282883,1
2332,CW,0.50253785,0.02170084,43.34136,11.955014,367.61612,-396.53864,0,439328.87045666575,0.0002977375623956,1.2126078628003598,0.5012753784656525,1.3990436258725822,0,5,0.000101695906464,2.9451873,3.2945027,1
2333,GIS,0.50253785,0.02170084,43.34136,11.955014,367.61612,-396.53864,0,439328.87045666575,0.0002977375623956,1.2126078628003598,0.5012753784656525,1.3990436258725822,0,5,0.000101695906464,2.9451873,3.2945027,1
2341,CW,0.74528307,0.017118087,40.142307,6.381897,180.70338,-428.61548,0,439328.87045666575,0.0002977375623956,1.680811208114028,0.4099065385758876,1.3990436258725822,0,5,0.000101695906464,2.4964838,3.3221922,1
2342,GIS,0.74528307,0.017118087,40.142307,6.381897,180.70338,-428.61548,0,439328.87045666575,0.0002977375623956,1.680811208114028,0.4099065385758876,1.3990436258725822,0,5,0.000101695906464,2.4964838,3.3221922,1
2350,CW,0.7251439,0.024000734,41.793533,7.8599496,445.71094,-288.82916,0,439328.87045666575,0.0002977375623956,1.680811208114028,0.5012753784656525,1.3380749146454036,0,5,0.000101695906464,2.8734894,3.2945826,1
2351,GIS,0.7251439,0.024000734,41.793533,7.8599496,445.71094,-288.82916,0,439328.87045666575,0.0002977375623956,1.680811208114028,0.5012753784656525,1.3380749146454036,0,5,0.000101695906464,2.8734894,3.2945826,1
2359,CW,0.83054173,0.027856736,41.602936,6.2726974,635.94434,-292.6287,0,439328.87045666575,0.0002977375623956,1.680811208114028,0.5012753784656525,1.3990436258725822,0,5,0.000101695906464,2.7762313,3.3401282,1
2360,GIS,0.83054173,0.027856736,41.602936,6.2726974,635.94434,-292.6287,0,439328.87045666575,0.0002977375623956,1.680811208114028,0.5012753784656525,1.3990436258725822,0,5,0.000101695906464,2.7762313,3.3401282,1
2368,CW,0.7947395,0.015195321,41.99663,5.307157,138.69807,-461.553,0,439328.87045666575,0.0002977375623956,1.680811208114028,0.5012753784656525,1.3990436258725822,0,5,0.000101695906464,2.7606103,3.3405704,1
2369,GIS,0.7947395,0.015195321,41.99663,5.307157,138.69807,-461.553,0,439328.87045666575,0.0002977375623956,1.680811208114028,0.5012753784656525,1.3990436258725822,0,5,0.000101695906464,2.7606103,3.3405704,1
2377,CW,0.77207685,0.017080564,43.48736,5.4838796,300.86823,-439.94806,6,352274.1458378732,0.0003283528200164,1.439623090904206,0.5762748290318995,1.7077459249645472,1,8,0.0001207456176867,2.680734,3.2587738,1
2378,GIS,0.77207685,0.017080564,43.48736,5.4838796,300.86823,-439.94806,6,352274.1458378732,0.0003283528200164,1.439623090904206,0.5762748290318995,1.7077459249645472,1,8,0.0001207456176867,2.680734,3.2587738,1
2386,CW,0.767012,0.014861526,44.50278,6.4916134,284.29846,-609.91034,6,634863.6577837169,0.0003283528200164,1.439623090904206,0.5762748290318995,1.7077459249645472,1,8,0.0001207456176867,2.6145546,3.37929,1
2387,GIS,0.767012,0.014861526,44.50278,6.4916134,284.29846,-609.91034,6,634863.6577837169,0.0003283528200164,1.439623090904206,0.5762748290318995,1.7077459249645472,1,8,0.0001207456176867,2.6145546,3.37929,1
2395,CW,0.71555907,0.024013251,41.01798,9.944186,382.05768,-222.73631,6,352274.1458378732,0.0003283528200164,1.439623090904206,0.5762748290318995,1.7077459249645472,1,8,0.0001207456176867,2.666674,3.3013759,1
2396,GIS,0.71555907,0.024013251,41.01798,9.944186,382.05768,-222.73631,6,352274.1458378732,0.0003283528200164,1.439623090904206,0.5762748290318995,1.7077459249645472,1,8,0.0001207456176867,2.666674,3.3013759,1
2404,CW,0.81228006,0.022620087,43.449154,7.0182424,655.9365,-314.72733,6,352274.1458378732,0.0003283528200164,1.439623090904206,0.5762748290318995,1.7077459249645472,1,8,0.0001420291377464,2.1482165,3.3573039,1
2405,GIS,0.81228006,0.022620087,43.449154,7.0182424,655.9365,-314.72733,6,352274.1458378732,0.0003283528200164,1.439623090904206,0.5762748290318995,1.7077459249645472,1,8,0.0001420291377464,2.1482165,3.3573039,1
2413,CW,0.57082933,0.018789418,42.999947,7.03726,269.43338,-561.6952,6,352274.1458378732,0.0003283528200164,1.439623090904206,0.5762748290318995,1.7077459249645472,1,6,0.0001207456176867,3.1583335,3.3182836,1
2414,GIS,0.57082933,0.018789418,42.999947,7.03726,269.43338,-561.6952,6,352274.1458378732,0.0003283528200164,1.439623090904206,0.5762748290318995,1.7077459249645472,1,6,0.0001207456176867,3.1583335,3.3182836,1
2422,CW,0.79223067,0.015043349,43.254475,7.513509,97.276695,-361.18774,6,352274.1458378732,0.0003283528200164,1.439623090904206,0.5762748290318995,1.7077459249645472,1,8,0.0001207456176867,2.5100324,3.3767793,2
2423,GIS,0.79223067,0.015043349,43.254475,7.513509,97.276695,-361.18774,6,352274.1458378732,0.0003283528200164,1.439623090904206,0.5762748290318995,1.7077459249645472,1,8,0.0001207456176867,2.5100324,3.3767793,2
2431,CW,0.74803656,0.016837995,40.750824,8.246432,177.36043,-400.69186,6,352274.1458378732,0.0002735088029131,1.439623090904206,0.5762748290318995,1.7077459249645472,1,8,0.0001207456176867,2.4378984,3.2891097,1
2432,GIS,0.74803656,0.016837995,40.750824,8.246432,177.36043,-400.69186,6,352274.1458378732,0.0002735088029131,1.439623090904206,0.5762748290318995,1.7077459249645472,1,8,0.0001207456176867,2.4378984,3.2891097,1
2440,CW,0.82804,0.018128851,41.657043,10.605212,354.3246,-222.67146,6,352274.1458378732,0.0003283528200164,1.6111617306247354,0.5762748290318995,1.7077459249645472,1,8,0.0001207456176867,2.517817,3.322777,1
2441,GIS,0.82804,0.018128851,41.657043,10.605212,354.3246,-222.67146,6,352274.1458378732,0.0003283528200164,1.6111617306247354,0.5762748290318995,1.7077459249645472,1,8,0.0001207456176867,2.517817,3.322777,1
2449,CW,0.7853458,0.012007917,42.4591,7.883881,27.062088,-435.29218,6,352274.1458378732,0.0003283528200164,1.439623090904206,0.5443914286792279,1.7077459249645472,1,8,0.0001207456176867,1.9991484,3.266935,1
2450,GIS,0.7853458,0.012007917,42.4591,7.883881,27.062088,-435.29218,6,352274.1458378732,0.0003283528200164,1.439623090904206,0.5443914286792279,1.7077459249645472,1,8,0.0001207456176867,1.9991484,3.266935,1
2458,CW,0.7351964,0.020645348,44.62511,8.286623,501.2832,-343.98456,6,352274.1458378732,0.0003283528200164,1.439623090904206,0.5762748290318995,1.6996160842478276,1,8,0.0001207456176867,3.187165,3.3116522,1
2459,GIS,0.7351964,0.020645348,44.62511,8.286623,501.2832,-343.98456,6,352274.1458378732,0.0003283528200164,1.439623090904206,0.5762748290318995,1.6996160842478276,1,8,0.0001207456176867,3.187165,3.3116522,1
2467,CW,0.54643583,0.020545235,42.036293,7.1805606,131.20802,-404.57538,6,352274.1458378732,0.0003283528200164,1.439623090904206,0.5762748290318995,1.7077459249645472,1,8,0.0001207456176867,2.4190273,3.2566736,1
2468,GIS,0.54643583,0.020545235,42.036293,7.1805606,131.20802,-404.57538,6,352274.1458378732,0.0003283528200164,1.439623090904206,0.5762748290318995,1.7077459249645472,1,8,0.0001207456176867,2.4190273,3.2566736,1
2476,CW,0.76802826,0.018667087,44.074078,9.509836,125.46403,-288.84778,6,352274.1458378732,0.0002735088029131,1.6111617306247354,0.5443914286792279,1.6996160842478276,1,6,0.0001420291377464,3.202852,3.327037,2
2477,GIS,0.76802826,0.018667087,44.074078,9.509836,125.46403,-288.84778,6,352274.1458378732,0.0002735088029131,1.6111617306247354,0.5443914286792279,1.6996160842478276,1,6,0.0001420291377464,3.202852,3.327037,2
2485,CW,0.69676656,0.025539298,41.156548,8.093782,387.6599,-305.32538,6,634863.6577837169,0.0002735088029131,1.6111617306247354,0.5443914286792279,1.6996160842478276,1,6,0.0001420291377464,2.7508187,3.2741282,2
2486,GIS,0.69676656,0.025539298,41.156548,8.093782,387.6599,-305.32538,6,634863.6577837169,0.0002735088029131,1.6111617306247354,0.5443914286792279,1.6996160842478276,1,6,0.0001420291377464,2.7508187,3.2741282,2
2494,CW,0.7328504,0.014407582,43.69636,5.9763975,132.69617,-381.87915,6,634863.6577837169,0.0002735088029131,1.6111617306247354,0.5443914286792279,1.6996160842478276,1,6,0.0001207456176867,2.5825343,3.2921457,2
2495,GIS,0.7328504,0.014407582,43.69636,5.9763975,132.69617,-381.87915,6,634863.6577837169,0.0002735088029131,1.6111617306247354,0.5443914286792279,1.6996160842478276,1,6,0.0001207456176867,2.5825343,3.2921457,2
2503,CW,0.8146303,0.019990675,43.4299,5.891474,401.60513,-412.00348,6,634863.6577837169,0.0002735088029131,1.6111617306247354,0.5443914286792279,1.6996160842478276,1,8,0.0001420291377464,2.1840694,3.339948,2
2504,GIS,0.8146303,0.019990675,43.4299,5.891474,401.60513,-412.00348,6,634863.6577837169,0.0002735088029131,1.6111617306247354,0.5443914286792279,1.6996160842478276,1,8,0.0001420291377464,2.1840694,3.339948,2
2512,CW,0.87427133,0.016801978,41.220463,7.756468,271.9661,-256.97052,6,634863.6577837169,0.0002735088029131,1.6111617306247354,0.5443914286792279,1.6996160842478276,1,6,0.0001420291377464,2.4499457,3.2535644,1
2513,GIS,0.87427133,0.016801978,41.220463,7.756468,271.9661,-256.97052,6,634863.6577837169,0.0002735088029131,1.6111617306247354,0.5443914286792279,1.6996160842478276,1,6,0.0001420291377464,2.4499457,3.2535644,1
2521,CW,0.7041957,0.017683852,42.024128,9.608814,310.94952,-374.22263,6,634863.6577837169,0.0003283528200164,1.6111617306247354,0.5443914286792279,1.6996160842478276,1,6,0.0001420291377464,2.524522,3.3171825,2
2522,GIS,0.7041957,0.017683852,42.024128,9.608814,310.94952,-374.22263,6,634863.6577837169,0.0003283528200164,1.6111617306247354,0.5443914286792279,1.6996160842478276,1,6,0.0001420291377464,2.524522,3.3171825,2
2530,CW,0.76838857,0.01499217,41.752316,8.275529,210.90138,-367.5182,6,634863.6577837169,0.0002735088029131,1.439623090904206,0.5443914286792279,1.6996160842478276,1,6,0.0001420291377464,2.4508374,3.311533,2
2531,GIS,0.76838857,0.01499217,41.752316,8.275529,210.90138,-367.5182,6,634863.6577837169,0.0002735088029131,1.439623090904206,0.5443914286792279,1.6996160842478276,1,6,0.0001420291377464,2.4508374,3.311533,2
2539,CW,0.681715,0.020795854,43.55981,5.1173987,216.26218,-370.96448,6,634863.6577837169,0.0002735088029131,1.6111617306247354,0.5762748290318995,1.6996160842478276,1,6,0.0001420291377464,2.7423525,3.2441869,2
2540,GIS,0.681715,0.020795854,43.55981,5.1173987,216.26218,-370.96448,6,634863.6577837169,0.0002735088029131,1.6111617306247354,0.5762748290318995,1.6996160842478276,1,6,0.0001420291377464,2.7423525,3.2441869,2
2548,CW,0.67875,0.015736531,42.914814,5.778259,120.44789,-371.1617,6,634863.6577837169,0.0002735088029131,1.6111617306247354,0.5443914286792279,1.7077459249645472,1,6,0.0001420291377464,2.5889766,3.3113058,2
2549,GIS,0.67875,0.015736531,42.914814,5.778259,120.44789,-371.1617,6,634863.6577837169,0.0002735088029131,1.6111617306247354,0.5443914286792279,1.7077459249645472,1,6,0.0001420291377464,2.5889766,3.3113058,2
2557,CW,0.71466786,0.014089672,42.451946,6.1377926,118.03965,-448.29565,6,634863.6577837169,0.0002735088029131,1.6111617306247354,0.5443914286792279,1.6996160842478276,1,6,0.0001420291377464,2.5695682,3.314934,2
2558,GIS,0.71466786,0.014089672,42.451946,6.1377926,118.03965,-448.29565,6,634863.6577837169,0.0002735088029131,1.6111617306247354,0.5443914286792279,1.6996160842478276,1,6,0.0001420291377464,2.5695682,3.314934,2
2566,CW,0.7200077,0.025677746,43.42431,7.5482154,380.45175,-278.0306,6,634863.6577837169,0.0002735088029131,1.6111617306247354,0.5443914286792279,1.6996160842478276,1,6,0.0001420291377464,2.8000379,3.3242974,2
2567,GIS,0.7200077,0.025677746,43.42431,7.5482154,380.45175,-278.0306,6,634863.6577837169,0.0002735088029131,1.6111617306247354,0.5443914286792279,1.6996160842478276,1,6,0.0001420291377464,2.8000379,3.3242974,2
2575,CW,0.78115183,0.016870003,44.127815,7.023585,169.69783,-356.0406,4,602984.0828850865,0.0002620418217033,1.2626010491512716,0.3620570455212146,1.4329456307925286,0,9,8.241933721583335e-05,2.1732056,3.277252,0
2576,GIS,0.78115183,0.016870003,44.127815,7.023585,169.69783,-356.0406,4,602984.0828850865,0.0002620418217033,1.2626010491512716,0.3620570455212146,1.4329456307925286,0,9,8.241933721583335e-05,2.1732056,3.277252,0
2584,CW,0.7887428,0.026907424,40.96485,5.237298,257.03433,-318.40033,4,494091.0320729017,0.0002620418217033,1.2626010491512716,0.3620570455212146,1.4329456307925286,0,9,8.241933721583335e-05,3.1264186,3.2643807,0
2585,GIS,0.7887428,0.026907424,40.96485,5.237298,257.03433,-318.40033,4,494091.0320729017,0.0002620418217033,1.2626010491512716,0.3620570455212146,1.4329456307925286,0,9,8.241933721583335e-05,3.1264186,3.2643807,0
2593,CW,0.8371797,0.024311503,43.464928,5.823645,258.19208,-308.68198,5,602984.0828850865,0.0002620418217033,1.2626010491512716,0.3620570455212146,1.4329456307925286,0,9,8.241933721583335e-05,2.8763857,3.2990222,0
2594,GIS,0.8371797,0.024311503,43.464928,5.823645,258.19208,-308.68198,5,602984.0828850865,0.0002620418217033,1.2626010491512716,0.3620570455212146,1.4329456307925286,0,9,8.241933721583335e-05,2.8763857,3.2990222,0
2602,CW,0.80270034,0.022397406,43.29129,5.67968,244.07736,-240.62595,4,602984.0828850865,0.0002620418217033,1.2626010491512716,0.3620570455212146,1.4329456307925286,0,9,0.0001120570106897,2.8363438,3.2883637,0
2603,GIS,0.80270034,0.022397406,43.29129,5.67968,244.07736,-240.62595,4,602984.0828850865,0.0002620418217033,1.2626010491512716,0.3620570455212146,1.4329456307925286,0,9,0.0001120570106897,2.8363438,3.2883637,0
2611,CW,0.6914103,0.025255358,42.466614,5.3854036,414.78275,-486.2304,4,602984.0828850865,0.0002620418217033,1.2626010491512716,0.3620570455212146,1.4329456307925286,0,0,8.241933721583335e-05,3.1645448,3.3036358,0
2612,GIS,0.6914103,0.025255358,42.466614,5.3854036,414.78275,-486.2304,4,602984.0828850865,0.0002620418217033,1.2626010491512716,0.3620570455212146,1.4329456307925286,0,0,8.241933721583335e-05,3.1645448,3.3036358,0
2620,CW,0.7932448,0.017094305,42.09209,5.4497633,500.21356,-598.7443,4,602984.0828850865,0.0002620418217033,1.2626010491512716,0.3620570455212146,1.4329456307925286,0,9,8.241933721583335e-05,2.9071553,3.2975256,1
2621,GIS,0.7932448,0.017094305,42.09209,5.4497633,500.21356,-598.7443,4,602984.0828850865,0.0002620418217033,1.2626010491512716,0.3620570455212146,1.4329456307925286,0,9,8.241933721583335e-05,2.9071553,3.2975256,1
2629,CW,0.8327194,0.019222254,40.763958,8.584666,290.9398,-271.09424,4,602984.0828850865,0.0003493983485922,1.2626010491512716,0.3620570455212146,1.4329456307925286,0,9,8.241933721583335e-05,2.2897253,3.3570533,0
2630,GIS,0.8327194,0.019222254,40.763958,8.584666,290.9398,-271.09424,4,602984.0828850865,0.0003493983485922,1.2626010491512716,0.3620570455212146,1.4329456307925286,0,9,8.241933721583335e-05,2.2897253,3.3570533,0
2638,CW,0.5728944,0.017217468,41.218353,7.8761554,178.75935,-507.45004,4,602984.0828850865,0.0002620418217033,1.096933202072978,0.3620570455212146,1.4329456307925286,0,9,8.241933721583335e-05,2.2619443,3.2934158,0
2639,GIS,0.5728944,0.017217468,41.218353,7.8761554,178.75935,-507.45004,4,602984.0828850865,0.0002620418217033,1.096933202072978,0.3620570455212146,1.4329456307925286,0,9,8.241933721583335e-05,2.2619443,3.2934158,0
2647,CW,0.7260781,0.017914027,41.165707,8.396108,439.3205,-373.5836,4,602984.0828850865,0.0002620418217033,1.2626010491512716,0.7635223930701613,1.4329456307925286,0,9,8.241933721583335e-05,2.5731459,3.3198814,0
2648,GIS,0.7260781,0.017914027,41.165707,8.396108,439.3205,-373.5836,4,602984.0828850865,0.0002620418217033,1.2626010491512716,0.7635223930701613,1.4329456307925286,0,9,8.241933721583335e-05,2.5731459,3.3198814,0
2656,CW,0.7302864,0.019319342,40.390923,7.1677265,348.6269,-383.03906,4,602984.0828850865,0.0002620418217033,1.2626010491512716,0.3620570455212146,1.305172283947468,0,9,8.241933721583335e-05,2.307892,3.239792,0
2657,GIS,0.7302864,0.019319342,40.390923,7.1677265,348.6269,-383.03906,4,602984.0828850865,0.0002620418217033,1.2626010491512716,0.3620570455212146,1.305172283947468,0,9,8.241933721583335e-05,2.307892,3.239792,0
2665,CW,0.764477,0.014064296,41.50679,10.002373,141.76578,-359.36026,4,602984.0828850865,0.0002620418217033,1.2626010491512716,0.3620570455212146,1.4329456307925286,0,9,8.241933721583335e-05,2.2357752,3.3075545,0
2666,GIS,0.764477,0.014064296,41.50679,10.002373,141.76578,-359.36026,4,602984.0828850865,0.0002620418217033,1.2626010491512716,0.3620570455212146,1.4329456307925286,0,9,8.241933721583335e-05,2.2357752,3.3075545,0
2674,CW,0.69404465,0.015683817,43.08394,9.781498,286.33395,-393.3841,5,602984.0828850865,0.0003493983485922,1.096933202072978,0.7635223930701613,1.305172283947468,0,0,0.0001120570106897,2.5432546,3.3299098,1
2675,GIS,0.69404465,0.015683817,43.08394,9.781498,286.33395,-393.3841,5,602984.0828850865,0.0003493983485922,1.096933202072978,0.7635223930701613,1.305172283947468,0,0,0.0001120570106897,2.5432546,3.3299098,1
2683,CW,0.81244755,0.020281686,42.1317,7.0961537,358.13992,-451.74625,4,494091.0320729017,0.0003493983485922,1.096933202072978,0.7635223930701613,1.305172283947468,0,0,0.0001120570106897,2.7702734,3.3239217,1
2684,GIS,0.81244755,0.020281686,42.1317,7.0961537,358.13992,-451.74625,4,494091.0320729017,0.0003493983485922,1.096933202072978,0.7635223930701613,1.305172283947468,0,0,0.0001120570106897,2.7702734,3.3239217,1
2692,CW,0.79768634,0.020680562,42.081245,8.760215,505.35834,-285.2386,5,494091.0320729017,0.0003493983485922,1.096933202072978,0.7635223930701613,1.305172283947468,0,0,8.241933721583335e-05,2.8698084,3.3176627,1
2693,GIS,0.79768634,0.020680562,42.081245,8.760215,505.35834,-285.2386,5,494091.0320729017,0.0003493983485922,1.096933202072978,0.7635223930701613,1.305172283947468,0,0,8.241933721583335e-05,2.8698084,3.3176627,1
2701,CW,0.6005453,0.023377046,40.817753,6.011667,248.31158,-436.0182,5,494091.0320729017,0.0003493983485922,1.096933202072978,0.7635223930701613,1.305172283947468,0,9,0.0001120570106897,3.0982726,3.316738,1
2702,GIS,0.6005453,0.023377046,40.817753,6.011667,248.31158,-436.0182,5,494091.0320729017,0.0003493983485922,1.096933202072978,0.7635223930701613,1.305172283947468,0,9,0.0001120570106897,3.0982726,3.316738,1
2710,CW,0.71652657,0.016493298,41.735527,8.581998,86.35394,-331.01675,5,494091.0320729017,0.0003493983485922,1.096933202072978,0.7635223930701613,1.305172283947468,0,0,0.0001120570106897,3.0007524,3.3226547,0
2711,GIS,0.71652657,0.016493298,41.735527,8.581998,86.35394,-331.01675,5,494091.0320729017,0.0003493983485922,1.096933202072978,0.7635223930701613,1.305172283947468,0,0,0.0001120570106897,3.0007524,3.3226547,0
2719,CW,0.747293,0.017104736,42.96194,6.002328,111.41885,-309.88007,5,494091.0320729017,0.0002620418217033,1.096933202072978,0.7635223930701613,1.305172283947468,0,0,0.0001120570106897,2.7496068,3.2817595,1
2720,GIS,0.747293,0.017104736,42.96194,6.002328,111.41885,-309.88007,5,494091.0320729017,0.0002620418217033,1.096933202072978,0.7635223930701613,1.305172283947468,0,0,0.0001120570106897,2.7496068,3.2817595,1
2728,CW,0.8176591,0.014611793,43.24266,8.431914,57.430428,-330.5493,5,494091.0320729017,0.0003493983485922,1.2626010491512716,0.7635223930701613,1.305172283947468,0,0,0.0001120570106897,2.730089,3.3406928,1
2729,GIS,0.8176591,0.014611793,43.24266,8.431914,57.430428,-330.5493,5,494091.0320729017,0.0003493983485922,1.2626010491512716,0.7635223930701613,1.305172283947468,0,0,0.0001120570106897,2.730089,3.3406928,1
2737,CW,0.9163773,0.021455353,43.434383,5.6800604,181.82144,-224.65608,5,494091.0320729017,0.0003493983485922,1.096933202072978,0.3620570455212146,1.305172283947468,0,0,0.0001120570106897,2.422298,3.2312808,1
2738,GIS,0.9163773,0.021455353,43.434383,5.6800604,181.82144,-224.65608,5,494091.0320729017,0.0003493983485922,1.096933202072978,0.3620570455212146,1.305172283947468,0,0,0.0001120570106897,2.422298,3.2312808,1
2746,CW,0.8421848,0.01840403,44.07926,10.76808,494.27512,-345.42664,5,494091.0320729017,0.0003493983485922,1.096933202072978,0.7635223930701613,1.4329456307925286,0,0,0.0001120570106897,2.6455965,3.3861613,1
2747,GIS,0.8421848,0.01840403,44.07926,10.76808,494.27512,-345.42664,5,494091.0320729017,0.0003493983485922,1.096933202072978,0.7635223930701613,1.4329456307925286,0,0,0.0001120570106897,2.6455965,3.3861613,1
2755,CW,0.80797386,0.013351928,42.305035,4.978667,231.48712,-641.7824,5,494091.0320729017,0.0003493983485922,1.096933202072978,0.7635223930701613,1.305172283947468,0,0,0.0001120570106897,2.2048528,3.2671647,1
2756,GIS,0.80797386,0.013351928,42.305035,4.978667,231.48712,-641.7824,5,494091.0320729017,0.0003493983485922,1.096933202072978,0.7635223930701613,1.305172283947468,0,0,0.0001120570106897,2.2048528,3.2671647,1
2764,CW,0.89332867,0.017914858,43.93931,7.0605392,125.80636,-280.9718,5,494091.0320729017,0.0003493983485922,1.096933202072978,0.7635223930701613,1.305172283947468,0,0,0.0001120570106897,2.5955293,3.305464,1
2765,GIS,0.89332867,0.017914858,43.93931,7.0605392,125.80636,-280.9718,5,494091.0320729017,0.0003493983485922,1.096933202072978,0.7635223930701613,1.305172283947468,0,0,0.0001120570106897,2.5955293,3.305464,1
2773,CW,0.6801078,0.014259823,41.576786,10.754485,116.972145,-237.27127,1,552100.9492687881,0.000294791271016,1.611466516368091,0.4530030027497559,1.1326776797883211,0,1,0.0001398457018425,2.2393105,3.3148518,1
2774,GIS,0.6801078,0.014259823,41.576786,10.754485,116.972145,-237.27127,1,552100.9492687881,0.000294791271016,1.611466516368091,0.4530030027497559,1.1326776797883211,0,1,0.0001398457018425,2.2393105,3.3148518,1
2782,CW,0.6296737,0.017651135,43.8844,7.282627,179.54826,-469.63416,1,378107.3904596269,0.000294791271016,1.611466516368091,0.4530030027497559,1.1326776797883211,0,1,0.0001398457018425,2.8365867,3.307207,1
2783,GIS,0.6296737,0.017651135,43.8844,7.282627,179.54826,-469.63416,1,378107.3904596269,0.000294791271016,1.611466516368091,0.4530030027497559,1.1326776797883211,0,1,0.0001398457018425,2.8365867,3.307207,1
2791,CW,0.74365276,0.0169614,43.293873,8.038162,182.70361,-275.62354,3,552100.9492687881,0.000294791271016,1.611466516368091,0.4530030027497559,1.1326776797883211,0,1,0.0001398457018425,2.8324282,3.2935164,1
2792,GIS,0.74365276,0.0169614,43.293873,8.038162,182.70361,-275.62354,3,552100.9492687881,0.000294791271016,1.611466516368091,0.4530030027497559,1.1326776797883211,0,1,0.0001398457018425,2.8324282,3.2935164,1
2800,CW,0.8057716,0.019075103,42.780945,9.419734,429.5762,-456.9859,1,552100.9492687881,0.000294791271016,1.611466516368091,0.4530030027497559,1.1326776797883211,0,1,0.0001240496126236,2.67408,3.3469338,1
2801,GIS,0.8057716,0.019075103,42.780945,9.419734,429.5762,-456.9859,1,552100.9492687881,0.000294791271016,1.611466516368091,0.4530030027497559,1.1326776797883211,0,1,0.0001240496126236,2.67408,3.3469338,1
2809,CW,0.90028757,0.0134543255,43.455208,5.4834266,299.21063,-504.8629,1,552100.9492687881,0.000294791271016,1.611466516368091,0.4530030027497559,1.1326776797883211,0,10,0.0001398457018425,2.034133,3.3467429,1
2810,GIS,0.90028757,0.0134543255,43.455208,5.4834266,299.21063,-504.8629,1,552100.9492687881,0.000294791271016,1.611466516368091,0.4530030027497559,1.1326776797883211,0,10,0.0001398457018425,2.034133,3.3467429,1
2818,CW,0.8048297,0.020369187,42.60646,6.069388,237.52264,-328.98788,1,552100.9492687881,0.000294791271016,1.611466516368091,0.4530030027497559,1.1326776797883211,0,1,0.0001398457018425,2.4776266,3.2955744,0
2819,GIS,0.8048297,0.020369187,42.60646,6.069388,237.52264,-328.98788,1,552100.9492687881,0.000294791271016,1.611466516368091,0.4530030027497559,1.1326776797883211,0,1,0.0001398457018425,2.4776266,3.2955744,0
2827,CW,0.78908646,0.02169707,42.98943,5.9145203,300.41415,-447.77924,1,552100.9492687881,0.0002601477205753,1.611466516368091,0.4530030027497559,1.1326776797883211,0,1,0.0001398457018425,2.5310032,3.3202763,1
2828,GIS,0.78908646,0.02169707,42.98943,5.9145203,300.41415,-447.77924,1,552100.9492687881,0.0002601477205753,1.611466516368091,0.4530030027497559,1.1326776797883211,0,1,0.0001398457018425,2.5310032,3.3202763,1
2836,CW,0.64126205,0.019546585,43.025986,10.403221,290.1576,-397.88843,1,552100.9492687881,0.000294791271016,1.3018064515665173,0.4530030027497559,1.1326776797883211,0,1,0.0001398457018425,2.7304785,3.3025534,1
2837,GIS,0.64126205,0.019546585,43.025986,10.403221,290.1576,-397.88843,1,552100.9492687881,0.000294791271016,1.3018064515665173,0.4530030027497559,1.1326776797883211,0,1,0.0001398457018425,2.7304785,3.3025534,1
2845,CW,0.6602656,0.018331759,42.75523,5.7701306,132.74242,-381.81335,1,552100.9492687881,0.000294791271016,1.611466516368091,0.421632712893188,1.1326776797883211,0,1,0.0001398457018425,2.586223,3.2298887,1
2846,GIS,0.6602656,0.018331759,42.75523,5.7701306,132.74242,-381.81335,1,552100.9492687881,0.000294791271016,1.611466516368091,0.421632712893188,1.1326776797883211,0,1,0.0001398457018425,2.586223,3.2298887,1
2854,CW,0.7795849,0.016095018,42.770626,6.922079,160.4261,-447.42505,1,552100.9492687881,0.000294791271016,1.611466516368091,0.4530030027497559,1.1099635306745768,0,1,0.0001398457018425,2.408721,3.3157442,1
2855,GIS,0.7795849,0.016095018,42.770626,6.922079,160.4261,-447.42505,1,552100.9492687881,0.000294791271016,1.611466516368091,0.4530030027497559,1.1099635306745768,0,1,0.0001398457018425,2.408721,3.3157442,1
2863,CW,0.7319032,0.022940725,41.59982,6.6513367,370.68298,-278.7514,1,552100.9492687881,0.000294791271016,1.611466516368091,0.4530030027497559,1.1326776797883211,1,1,0.0001398457018425,2.3540142,3.204542,1
2864,GIS,0.7319032,0.022940725,41.59982,6.6513367,370.68298,-278.7514,1,552100.9492687881,0.000294791271016,1.611466516368091,0.4530030027497559,1.1326776797883211,1,1,0.0001398457018425,2.3540142,3.204542,1
2872,CW,0.7929141,0.019503184,40.308807,6.6793094,180.98737,-371.7317,3,552100.9492687881,0.0002601477205753,1.3018064515665173,0.421632712893188,1.1099635306745768,1,10,0.0001240496126236,2.0895305,3.3354032,0
2873,GIS,0.7929141,0.019503184,40.308807,6.6793094,180.98737,-371.7317,3,552100.9492687881,0.0002601477205753,1.3018064515665173,0.421632712893188,1.1099635306745768,1,10,0.0001240496126236,2.0895305,3.3354032,0
2881,CW,0.6459576,0.019507634,41.841743,10.897676,142.97678,-213.37033,1,378107.3904596269,0.0002601477205753,1.3018064515665173,0.421632712893188,1.1099635306745768,1,10,0.0001240496126236,2.7640717,3.2986465,0
2882,GIS,0.6459576,0.019507634,41.841743,10.897676,142.97678,-213.37033,1,378107.3904596269,0.0002601477205753,1.3018064515665173,0.421632712893188,1.1099635306745768,1,10,0.0001240496126236,2.7640717,3.2986465,0
2890,CW,0.8163968,0.015965661,42.597588,5.9806604,166.58054,-332.2051,3,378107.3904596269,0.0002601477205753,1.3018064515665173,0.421632712893188,1.1099635306745768,1,10,0.0001398457018425,2.5324917,3.2592735,0
2891,GIS,0.8163968,0.015965661,42.597588,5.9806604,166.58054,-332.2051,3,378107.3904596269,0.0002601477205753,1.3018064515665173,0.421632712893188,1.1099635306745768,1,10,0.0001398457018425,2.5324917,3.2592735,0
2899,CW,0.8197,0.020249164,43.882656,6.460976,82.65049,-306.68588,3,378107.3904596269,0.0002601477205753,1.3018064515665173,0.421632712893188,1.1099635306745768,1,1,0.0001240496126236,2.5834076,3.3140388,0
2900,GIS,0.8197,0.020249164,43.882656,6.460976,82.65049,-306.68588,3,378107.3904596269,0.0002601477205753,1.3018064515665173,0.421632712893188,1.1099635306745768,1,1,0.0001240496126236,2.5834076,3.3140388,0
2908,CW,0.6422951,0.021954766,43.553444,5.365046,202.53992,-390.7353,3,378107.3904596269,0.0002601477205753,1.3018064515665173,0.421632712893188,1.1099635306745768,1,10,0.0001240496126236,3.1808026,3.3017037,1
2909,GIS,0.6422951,0.021954766,43.553444,5.365046,202.53992,-390.7353,3,378107.3904596269,0.0002601477205753,1.3018064515665173,0.421632712893188,1.1099635306745768,1,10,0.0001240496126236,3.1808026,3.3017037,1
2917,CW,0.7521494,0.019405741,41.504086,7.6860123,326.95383,-331.6622,3,378107.3904596269,0.000294791271016,1.3018064515665173,0.421632712893188,1.1099635306745768,1,10,0.0001240496126236,2.4289849,3.3016317,0
2918,GIS,0.7521494,0.019405741,41.504086,7.6860123,326.95383,-331.6622,3,378107.3904596269,0.000294791271016,1.3018064515665173,0.421632712893188,1.1099635306745768,1,10,0.0001240496126236,2.4289849,3.3016317,0
2926,CW,0.7140484,0.020380015,42.92412,8.357638,204.47285,-330.6081,3,378107.3904596269,0.0002601477205753,1.611466516368091,0.421632712893188,1.1099635306745768,1,10,0.0001240496126236,2.757677,3.320259,0
2927,GIS,0.7140484,0.020380015,42.92412,8.357638,204.47285,-330.6081,3,378107.3904596269,0.0002601477205753,1.611466516368091,0.421632712893188,1.1099635306745768,1,10,0.0001240496126236,2.757677,3.320259,0
2935,CW,0.7329401,0.017653497,43.094955,6.2845254,252.7363,-413.18454,3,378107.3904596269,0.0002601477205753,1.3018064515665173,0.4530030027497559,1.1099635306745768,1,10,0.0001240496126236,3.1188846,3.2752903,0
2936,GIS,0.7329401,0.017653497,43.094955,6.2845254,252.7363,-413.18454,3,378107.3904596269,0.0002601477205753,1.3018064515665173,0.4530030027497559,1.1099635306745768,1,10,0.0001240496126236,3.1188846,3.2752903,0
2944,CW,0.61035407,0.01843992,40.251663,11.1107235,258.81943,-295.24805,3,378107.3904596269,0.0002601477205753,1.3018064515665173,0.421632712893188,1.1326776797883211,1,10,0.0001240496126236,2.5974014,3.3071845,0
2945,GIS,0.61035407,0.01843992,40.251663,11.1107235,258.81943,-295.24805,3,378107.3904596269,0.0002601477205753,1.3018064515665173,0.421632712893188,1.1326776797883211,1,10,0.0001240496126236,2.5974014,3.3071845,0
2953,CW,0.8128525,0.023811169,42.015823,6.9370136,405.691,-285.04773,3,378107.3904596269,0.0002601477205753,1.3018064515665173,0.421632712893188,1.1099635306745768,0,10,0.0001240496126236,2.4882896,3.2596328,0
2954,GIS,0.8128525,0.023811169,42.015823,6.9370136,405.691,-285.04773,3,378107.3904596269,0.0002601477205753,1.3018064515665173,0.421632712893188,1.1099635306745768,0,10,0.0001240496126236,2.4882896,3.2596328,0
2962,CW,0.8580002,0.016062317,42.523388,5.990285,264.0357,-347.1817,3,378107.3904596269,0.0002601477205753,1.3018064515665173,0.421632712893188,1.1099635306745768,1,10,0.0001240496126236,1.9785252,3.2864957,0
2963,GIS,0.8580002,0.016062317,42.523388,5.990285,264.0357,-347.1817,3,378107.3904596269,0.0002601477205753,1.3018064515665173,0.421632712893188,1.1099635306745768,1,10,0.0001240496126236,1.9785252,3.2864957,0
2971,CW,0.7214638,0.017882336,41.16826,6.852987,327.3722,-412.41666,2,493428.1660243869,0.0003485650307312,1.0856260823085904,0.7710686088073999,1.5715392665937544,1,4,0.00010081925306,2.2813857,3.2989917,2
2972,GIS,0.7214638,0.017882336,41.16826,6.852987,327.3722,-412.41666,2,493428.1660243869,0.0003485650307312,1.0856260823085904,0.7710686088073999,1.5715392665937544,1,4,0.00010081925306,2.2813857,3.2989917,2
2980,CW,0.7240557,0.01371064,42.27894,5.891925,92.93827,-417.21136,2,535286.2790226936,0.0003485650307312,1.0856260823085904,0.7710686088073999,1.5715392665937544,1,4,0.00010081925306,2.1907704,3.284701,2
2981,GIS,0.7240557,0.01371064,42.27894,5.891925,92.93827,-417.21136,2,535286.2790226936,0.0003485650307312,1.0856260823085904,0.7710686088073999,1.5715392665937544,1,4,0.00010081925306,2.1907704,3.284701,2
2989,CW,0.64991754,0.019700091,41.403637,9.680422,292.82455,-289.7706,1,493428.1660243869,0.0003485650307312,1.0856260823085904,0.7710686088073999,1.5715392665937544,1,4,0.00010081925306,2.643116,3.2634237,2
2990,GIS,0.64991754,0.019700091,41.403637,9.680422,292.82455,-289.7706,1,493428.1660243869,0.0003485650307312,1.0856260823085904,0.7710686088073999,1.5715392665937544,1,4,0.00010081925306,2.643116,3.2634237,2
2998,CW,0.7795363,0.017225703,40.404903,7.2842565,276.33347,-441.74146,2,493428.1660243869,0.0003485650307312,1.0856260823085904,0.7710686088073999,1.5715392665937544,1,4,9.312075446359813e-05,2.0653772,3.3171651,2
2999,GIS,0.7795363,0.017225703,40.404903,7.2842565,276.33347,-441.74146,2,493428.1660243869,0.0003485650307312,1.0856260823085904,0.7710686088073999,1.5715392665937544,1,4,9.312075446359813e-05,2.0653772,3.3171651,2
3007,CW,0.6886053,0.022296278,41.89537,8.790477,71.19409,-199.7724,2,493428.1660243869,0.0003485650307312,1.0856260823085904,0.7710686088073999,1.5715392665937544,1,3,0.00010081925306,2.9539015,3.3285658,2
3008,GIS,0.6886053,0.022296278,41.89537,8.790477,71.19409,-199.7724,2,493428.1660243869,0.0003485650307312,1.0856260823085904,0.7710686088073999,1.5715392665937544,1,3,0.00010081925306,2.9539015,3.3285658,2
3016,CW,0.6534734,0.017244982,42.792885,8.789646,143.58664,-386.3409,2,493428.1660243869,0.0003485650307312,1.0856260823085904,0.7710686088073999,1.5715392665937544,1,4,0.00010081925306,2.3831983,3.3677518,2
3017,GIS,0.6534734,0.017244982,42.792885,8.789646,143.58664,-386.3409,2,493428.1660243869,0.0003485650307312,1.0856260823085904,0.7710686088073999,1.5715392665937544,1,4,0.00010081925306,2.3831983,3.3677518,2
3025,CW,0.61627305,0.022976827,41.015343,10.610361,650.3443,-376.1534,2,493428.1660243869,0.0003022943401336,1.0856260823085904,0.7710686088073999,1.5715392665937544,1,4,0.00010081925306,2.434938,3.2966511,2
3026,GIS,0.61627305,0.022976827,41.015343,10.610361,650.3443,-376.1534,2,493428.1660243869,0.0003022943401336,1.0856260823085904,0.7710686088073999,1.5715392665937544,1,4,0.00010081925306,2.434938,3.2966511,2
3034,CW,0.8569403,0.021094764,42.429344,6.0178423,653.2754,-542.9418,2,493428.1660243869,0.0003485650307312,1.401081596687436,0.7710686088073999,1.5715392665937544,1,4,0.00010081925306,2.1033475,3.295045,2
3035,GIS,0.8569403,0.021094764,42.429344,6.0178423,653.2754,-542.9418,2,493428.1660243869,0.0003485650307312,1.401081596687436,0.7710686088073999,1.5715392665937544,1,4,0.00010081925306,2.1033475,3.295045,2
3043,CW,0.5968082,0.014253094,43.384922,7.483404,178.19127,-533.8149,2,493428.1660243869,0.0003485650307312,1.0856260823085904,0.6413508415222169,1.5715392665937544,1,4,0.00010081925306,2.217269,3.3271115,2
3044,GIS,0.5968082,0.014253094,43.384922,7.483404,178.19127,-533.8149,2,493428.1660243869,0.0003485650307312,1.0856260823085904,0.6413508415222169,1.5715392665937544,1,4,0.00010081925306,2.217269,3.3271115,2
3052,CW,0.70975894,0.014405776,44.267685,13.692506,128.80197,-304.59308,2,493428.1660243869,0.0003485650307312,1.0856260823085904,0.7710686088073999,1.504407362267375,1,4,0.00010081925306,2.1045156,3.3883607,2
3053,GIS,0.70975894,0.014405776,44.267685,13.692506,128.80197,-304.59308,2,493428.1660243869,0.0003485650307312,1.0856260823085904,0.7710686088073999,1.504407362267375,1,4,0.00010081925306,2.1045156,3.3883607,2
3061,CW,0.78506625,0.017687755,43.959854,5.181691,223.31682,-427.4391,2,493428.1660243869,0.0003485650307312,1.0856260823085904,0.7710686088073999,1.5715392665937544,0,4,0.00010081925306,2.5702574,3.3416622,2
3062,GIS,0.78506625,0.017687755,43.959854,5.181691,223.31682,-427.4391,2,493428.1660243869,0.0003485650307312,1.0856260823085904,0.7710686088073999,1.5715392665937544,0,4,0.00010081925306,2.5702574,3.3416622,2
3070,CW,0.7378531,0.01424517,41.88647,7.1610265,142.79808,-466.23358,1,493428.1660243869,0.0003022943401336,1.401081596687436,0.6413508415222169,1.504407362267375,0,3,9.312075446359813e-05,2.5292547,3.2938197,2
3071,GIS,0.7378531,0.01424517,41.88647,7.1610265,142.79808,-466.23358,1,493428.1660243869,0.0003022943401336,1.401081596687436,0.6413508415222169,1.504407362267375,0,3,9.312075446359813e-05,2.5292547,3.2938197,2
3079,CW,0.8398893,0.017203227,43.219654,5.7009497,115.210236,-506.03076,2,535286.2790226936,0.0003022943401336,1.401081596687436,0.6413508415222169,1.504407362267375,0,3,9.312075446359813e-05,2.7235966,3.3901448,2
3080,GIS,0.8398893,0.017203227,43.219654,5.7009497,115.210236,-506.03076,2,535286.2790226936,0.0003022943401336,1.401081596687436,0.6413508415222169,1.504407362267375,0,3,9.312075446359813e-05,2.7235966,3.3901448,2
3088,CW,0.80321246,0.018759204,43.203575,6.94574,310.85648,-408.06946,1,535286.2790226936,0.0003022943401336,1.401081596687436,0.6413508415222169,1.504407362267375,0,3,0.00010081925306,2.6163733,3.3455944,2
3089,GIS,0.80321246,0.018759204,43.203575,6.94574,310.85648,-408.06946,1,535286.2790226936,0.0003022943401336,1.401081596687436,0.6413508415222169,1.504407362267375,0,3,0.00010081925306,2.6163733,3.3455944,2
3097,CW,0.5756019,0.014802587,43.594353,6.4929523,213.0649,-555.2388,1,535286.2790226936,0.0003022943401336,1.401081596687436,0.6413508415222169,1.504407362267375,0,4,9.312075446359813e-05,2.2133505,3.3057287,2
3098,GIS,0.5756019,0.014802587,43.594353,6.4929523,213.0649,-555.2388,1,535286.2790226936,0.0003022943401336,1.401081596687436,0.6413508415222169,1.504407362267375,0,4,9.312075446359813e-05,2.2133505,3.3057287,2
3106,CW,0.814068,0.013324769,44.554688,9.002235,237.5395,-408.69818,1,535286.2790226936,0.0003022943401336,1.401081596687436,0.6413508415222169,1.504407362267375,0,3,9.312075446359813e-05,2.0412195,3.2922065,2
3107,GIS,0.814068,0.013324769,44.554688,9.002235,237.5395,-408.69818,1,535286.2790226936,0.0003022943401336,1.401081596687436,0.6413508415222169,1.504407362267375,0,3,9.312075446359813e-05,2.0412195,3.2922065,2
3115,CW,0.8547408,0.016766343,41.86326,5.2958827,516.8974,-684.18384,1,535286.2790226936,0.0003485650307312,1.401081596687436,0.6413508415222169,1.504407362267375,0,3,9.312075446359813e-05,2.3568597,3.2798853,2
3116,GIS,0.8547408,0.016766343,41.86326,5.2958827,516.8974,-684.18384,1,535286.2790226936,0.0003485650307312,1.401081596687436,0.6413508415222169,1.504407362267375,0,3,9.312075446359813e-05,2.3568597,3.2798853,2
3124,CW,0.9009148,0.018661171,42.14946,5.413087,458.26956,-396.20325,1,535286.2790226936,0.0003022943401336,1.0856260823085904,0.6413508415222169,1.504407362267375,0,3,9.312075446359813e-05,1.9173987,3.285433,2
3125,GIS,0.9009148,0.018661171,42.14946,5.413087,458.26956,-396.20325,1,535286.2790226936,0.0003022943401336,1.0856260823085904,0.6413508415222169,1.504407362267375,0,3,9.312075446359813e-05,1.9173987,3.285433,2
3133,CW,0.77730155,0.021610152,40.34029,6.3882484,373.34772,-305.78043,1,535286.2790226936,0.0003022943401336,1.401081596687436,0.7710686088073999,1.504407362267375,0,3,9.312075446359813e-05,2.4833474,3.2079692,2
3134,GIS,0.77730155,0.021610152,40.34029,6.3882484,373.34772,-305.78043,1,535286.2790226936,0.0003022943401336,1.401081596687436,0.7710686088073999,1.504407362267375,0,3,9.312075446359813e-05,2.4833474,3.2079692,2
3142,CW,0.69980556,0.024389118,43.497704,5.5019526,552.83734,-342.3763,1,535286.2790226936,0.0003022943401336,1.401081596687436,0.6413508415222169,1.5715392665937544,0,3,9.312075446359813e-05,2.315981,3.2622669,2
3143,GIS,0.69980556,0.024389118,43.497704,5.5019526,552.83734,-342.3763,1,535286.2790226936,0.0003022943401336,1.401081596687436,0.6413508415222169,1.5715392665937544,0,3,9.312075446359813e-05,2.315981,3.2622669,2
3151,CW,0.7225513,0.013802844,42.82585,6.301389,232.73802,-553.47235,1,535286.2790226936,0.0003022943401336,1.401081596687436,0.6413508415222169,1.504407362267375,1,3,9.312075446359813e-05,2.1815305,3.3229654,2
3152,GIS,0.7225513,0.013802844,42.82585,6.301389,232.73802,-553.47235,1,535286.2790226936,0.0003022943401336,1.401081596687436,0.6413508415222169,1.504407362267375,1,3,9.312075446359813e-05,2.1815305,3.3229654,2
3160,CW,0.66582775,0.0154604735,42.099392,7.137234,131.29425,-306.05396,1,535286.2790226936,0.0003022943401336,1.401081596687436,0.6413508415222169,1.504407362267375,0,3,9.312075446359813e-05,2.0860136,3.212288,2
3161,GIS,0.66582775,0.0154604735,42.099392,7.137234,131.29425,-306.05396,1,535286.2790226936,0.0003022943401336,1.401081596687436,0.6413508415222169,1.504407362267375,0,3,9.312075446359813e-05,2.0860136,3.212288,2
